 vasp.6.4.2 20Jul23 (build Nov 13 2023 15:27:39) complex                        
  
 executed on             LinuxIFC date 2026.07.14  00:37:51
 running   32 mpi-ranks, on    1 nodes
 distrk:  each k-point on   32 cores,    1 groups
 distr:  one band on NCORE=   8 cores,    4 groups


--------------------------------------------------------------------------------------------------------


 INCAR:
   SYSTEM = C48H56N8
   EDIFF = 0.1E-7
   EDIFFG = -0.001
   NSW = 300
   IBRION = 2
   POTIM = 0.2
   ISIF = 3
   ISMEAR = 0
   SIGMA = 0.05
   ENCUT = 600
   PREC = accurate
   LREAL = .FALSE.
   ALGO = normal
   ISPIN = 2
   LWAVE = .F.
   LCHARG = .F.
   IVDW = 11
   NPAR = 4
   LORBIT = 11
   LMAXMIX = 4
   GGA = PE
   LDAU = .TRUE.
   LDAUTYPE = 2
   LDAUL = 2 -1
   LDAUU = 3 0
   LDAUJ = 0 0
   MAGMOM = 4*1 10*1

 POTCAR:    PAW_PBE V 08Apr2002                   
 POTCAR:    PAW_PBE O 08Apr2002                   
 POTCAR:    PAW_PBE V 08Apr2002                   
   VRHFIN =V: p6 d4 s1                                                                              
   LEXCH  = PE                                                                                      
   EATOM  =   170.8679 eV,   12.5584 Ry                                                             
                                                                                                    
   TITEL  = PAW_PBE V 08Apr2002                                                                     
   LULTRA =        F    use ultrasoft PP ?                                                          
   IUNSCR =        1    unscreen: 0-lin 1-nonlin 2-no                                               
   RPACOR =    2.000    partial core radius                                                         
   POMASS =   50.941; ZVAL   =    5.000    mass and valenz                                          
   RCORE  =    2.700    outmost cutoff radius                                                       
   RWIGS  =    2.500; RWIGS  =    1.323    wigner-seitz radius (au A)                               
   ENMAX  =  192.543; ENMIN  =  144.408 eV                                                          
   RCLOC  =    1.779    cutoff for local pot                                                        
   LCOR   =        T    correct aug charges                                                         
   LPAW   =        T    paw PP                                                                      
   EAUG   =  358.662                                                                                
   DEXC   =    0.000                                                                                
   RMAX   =    2.768    core radius for proj-oper                                                   
   RAUG   =    1.300    factor for augmentation sphere                                              
   RDEP   =    2.762    radius for radial grids                                                     
   RDEPT  =    2.240    core radius for aug-charge                                                  
                                                                                                    
   Atomic configuration                                                                             
    9 entries                                                                                       
     n  l   j            E        occ.                                                              
     1  0  0.50     -5360.7193   2.0000                                                             
     2  0  0.50      -598.4546   2.0000                                                             
     2  1  1.50      -499.0155   6.0000                                                             
     3  0  0.50       -66.5711   2.0000                                                             
     3  1  1.50       -40.5282   6.0000                                                             
     3  2  2.50        -2.4291   4.0000                                                             
     4  0  0.50        -3.8743   1.0000                                                             
     4  1  0.50        -2.7212   0.0000                                                             
     4  3  2.50        -1.3606   0.0000                                                             
   Description                                                                                      
     l       E           TYP  RCUT    TYP  RCUT                                                     
     2     -2.4290901     23  2.700                                                                 
     2     -3.7896727     23  2.700                                                                 
     0     -3.8742752     23  2.700                                                                 
     0     27.2116520     23  2.700                                                                 
     1     -2.7211652     23  2.700                                                                 
     1     27.2116520     23  2.700                                                                 
  local pseudopotential read in
  partial core-charges read in
  partial kinetic energy density read in
  atomic valenz-charges read in
  non local Contribution for L=           2  read in
    real space projection operators read in
  non local Contribution for L=           2  read in
    real space projection operators read in
  non local Contribution for L=           0  read in
    real space projection operators read in
  non local Contribution for L=           0  read in
    real space projection operators read in
  non local Contribution for L=           1  read in
    real space projection operators read in
  non local Contribution for L=           1  read in
    real space projection operators read in
    PAW grid and wavefunctions read in
 
   number of l-projection  operators is LMAX  =           6
   number of lm-projection operators is LMMAX =          18
 
 POTCAR:    PAW_PBE O 08Apr2002                   
   VRHFIN =O: s2p4                                                                                  
   LEXCH  = PE                                                                                      
   EATOM  =   432.3788 eV,   31.7789 Ry                                                             
                                                                                                    
   TITEL  = PAW_PBE O 08Apr2002                                                                     
   LULTRA =        F    use ultrasoft PP ?                                                          
   IUNSCR =        1    unscreen: 0-lin 1-nonlin 2-no                                               
   RPACOR =    1.200    partial core radius                                                         
   POMASS =   16.000; ZVAL   =    6.000    mass and valenz                                          
   RCORE  =    1.520    outmost cutoff radius                                                       
   RWIGS  =    1.550; RWIGS  =    0.820    wigner-seitz radius (au A)                               
   ENMAX  =  400.000; ENMIN  =  300.000 eV                                                          
   ICORE  =        2    local potential                                                             
   LCOR   =        T    correct aug charges                                                         
   LPAW   =        T    paw PP                                                                      
   EAUG   =  605.392                                                                                
   DEXC   =    0.000                                                                                
   RMAX   =    1.553    core radius for proj-oper                                                   
   RAUG   =    1.300    factor for augmentation sphere                                              
   RDEP   =    1.550    radius for radial grids                                                     
   RDEPT  =    1.329    core radius for aug-charge                                                  
                                                                                                    
   Atomic configuration                                                                             
    4 entries                                                                                       
     n  l   j            E        occ.                                                              
     1  0  0.50      -514.6923   2.0000                                                             
     2  0  0.50       -23.9615   2.0000                                                             
     2  1  0.50        -9.0305   4.0000                                                             
     3  2  1.50        -9.5241   0.0000                                                             
   Description                                                                                      
     l       E           TYP  RCUT    TYP  RCUT                                                     
     0    -23.9615318     23  1.200                                                                 
     0     -9.5240782     23  1.200                                                                 
     1     -9.0304911     23  1.520                                                                 
     1      8.1634956     23  1.520                                                                 
     2     -9.5240782      7  1.500                                                                 
  local pseudopotential read in
  partial core-charges read in
  partial kinetic energy density read in
  kinetic energy density of atom read in
  atomic valenz-charges read in
  non local Contribution for L=           0  read in
    real space projection operators read in
  non local Contribution for L=           0  read in
    real space projection operators read in
  non local Contribution for L=           1  read in
    real space projection operators read in
  non local Contribution for L=           1  read in
    real space projection operators read in
    PAW grid and wavefunctions read in
 
   number of l-projection  operators is LMAX  =           4
   number of lm-projection operators is LMMAX =           8
 
  PAW_PBE V 08Apr2002                   :
 energy of atom  1       EATOM= -170.8679
 kinetic energy error for atom=    0.0002 (will be added to EATOM!!)
  PAW_PBE O 08Apr2002                   :
 energy of atom  2       EATOM= -432.3788
 kinetic energy error for atom=    0.0168 (will be added to EATOM!!)
 
 
 POSCAR: V4 O10
  positions in direct lattice
  velocities in cartesian coordinates
 exchange correlation table for  LEXCH =        8
   RHO(1)=    0.500       N(1)  =     2000
   RHO(2)=  100.500       N(2)  =     4000

 VTST: version 4.1, (05/19/21)

 CHAIN: initializing optimizer
 
 OPT: Using VASP Conjugate-Gradient optimizer
 CHAIN: Read ICHAIN            0
 
 POSCAR: V4 O10
  positions in direct lattice
  velocities in cartesian coordinates
 


--------------------------------------------------------------------------------------------------------


 ion  position               nearest neighbor table
   1  0.000  0.149  0.108-   5 1.61  13 1.79  12 1.90  12 1.90   9 2.03   4 3.10   4 3.10
   2  0.000  0.851  0.108-   6 1.61  13 1.79  11 1.90  11 1.90  10 2.03   3 3.10   3 3.10
   3  0.500  0.649  0.892-   7 1.61  14 1.79  10 1.90  10 1.90  11 2.03   2 3.10   2 3.10
   4  0.500  0.351  0.892-   8 1.61  14 1.79   9 1.90   9 1.90  12 2.03   1 3.10   1 3.10
   5  0.000  0.145  0.473-   1 1.61
   6  0.000  0.855  0.473-   2 1.61
   7  0.500  0.645  0.527-   3 1.61
   8  0.500  0.355  0.527-   4 1.61
   9  0.000  0.319  0.998-   4 1.90   4 1.90   1 2.03
  10  0.000  0.681  0.998-   3 1.90   3 1.90   2 2.03
  11  0.500  0.819  0.002-   2 1.90   2 1.90   3 2.03
  12  0.500  0.181  0.002-   1 1.90   1 1.90   4 2.03
  13  0.000  0.000  0.998-   2 1.79   1 1.79
  14  0.500  0.500  0.002-   3 1.79   4 1.79
 
  LATTYP: Found a simple orthorhombic cell.
 ALAT       =     3.6092400176
 B/A-ratio  =     1.2180282498
 C/A-ratio  =     3.2077513535
  
  Lattice vectors:
  
 A1 = (  -3.6092400176,   0.0000000000,   0.0000000000)
 A2 = (   0.0000000000,   0.0000000000,   4.3961563016)
 A3 = (   0.0000000000,  11.5775445515,   0.0000000000)


Analysis of symmetry for initial positions (statically):
=====================================================================
 Subroutine PRICEL returns:
 Original cell was already a primitive cell.
 

 Routine SETGRP: Setting up the symmetry group for a 
 simple orthorhombic supercell.


 Subroutine GETGRP returns: Found  8 space group operations
 (whereof  4 operations were pure point group operations)
 out of a pool of  8 trial point group operations.


The static configuration has the point symmetry C_2v.
 The point group associated with its full space group is D_2h.


Analysis of symmetry for dynamics (positions and initial velocities):
=====================================================================
 Subroutine PRICEL returns:
 Original cell was already a primitive cell.
 

 Routine SETGRP: Setting up the symmetry group for a 
 simple orthorhombic supercell.


 Subroutine GETGRP returns: Found  8 space group operations
 (whereof  4 operations were pure point group operations)
 out of a pool of  8 trial point group operations.


The dynamic configuration has the point symmetry C_2v.
 The point group associated with its full space group is D_2h.


Analysis of structural, dynamic, and magnetic symmetry:
=====================================================================
 Subroutine PRICEL returns:
 Original cell was already a primitive cell.
 

 Routine SETGRP: Setting up the symmetry group for a 
 simple orthorhombic supercell.


 Subroutine GETGRP returns: Found  8 space group operations
 (whereof  4 operations were pure point group operations)
 out of a pool of  8 trial point group operations.


The overall configuration has the point symmetry C_2v.
 The point group associated with its full space group is D_2h.


 Subroutine INISYM returns: Found  8 space group operations
 (whereof  4 operations are pure point group operations),
 and found     1 'primitive' translations


----------------------------------------------------------------------------------------

                                     Primitive cell                                     

  volume of cell :     183.6984

  direct lattice vectors                    reciprocal lattice vectors
     3.609240018  0.000000000  0.000000000     0.277066639  0.000000000  0.000000000
     0.000000000 11.577544551  0.000000000     0.000000000  0.086374101  0.000000000
     0.000000000  0.000000000  4.396156302     0.000000000  0.000000000  0.227471439

  length of vectors
     3.609240018 11.577544551  4.396156302     0.277066639  0.086374101  0.227471439

  position of ions in fractional coordinates (direct lattice)
     0.000000000  0.149251172  0.108067912
     0.000000000  0.850748843  0.108067912
     0.500000000  0.649251157  0.891932103
     0.500000000  0.350748843  0.891932103
     0.000000000  0.144891973  0.473053931
     0.000000000  0.855108042  0.473053931
     0.500000000  0.644891958  0.526946069
     0.500000000  0.355108042  0.526946069
     0.000000000  0.319229540  0.997558742
     0.000000000  0.680770489  0.997558742
     0.500000000  0.819229511  0.002441258
     0.500000000  0.180770460  0.002441258
     0.000000000  0.000000000  0.998040781
     0.500000000  0.500000000  0.001959235

  ion indices of the primitive-cell ions
   primitive index   ion index
                 1           1
                 2           2
                 3           3
                 4           4
                 5           5
                 6           6
                 7           7
                 8           8
                 9           9
                10          10
                11          11
                12          12
                13          13
                14          14

----------------------------------------------------------------------------------------

 
 
 KPOINTS: K-points                                

Automatic generation of k-mesh.
 Grid dimensions read from file:
 generate k-points for:    7    3    5

 Generating k-lattice:

  Cartesian coordinates                     Fractional coordinates (reciprocal lattice)
     0.039580948  0.000000000  0.000000000     0.142857143  0.000000000  0.000000000
     0.000000000  0.028791367  0.000000000     0.000000000  0.333333333  0.000000000
     0.000000000  0.000000000  0.045494288     0.000000000  0.000000000  0.200000000

  Length of vectors
     0.039580948  0.028791367  0.045494288

  Shift w.r.t. Gamma in fractional coordinates (k-lattice)
     0.000000000  0.000000000  0.000000000

 
 Subroutine IBZKPT returns following result:
 ===========================================
 
 Found     24 irreducible k-points:
 
 Following reciprocal coordinates:
            Coordinates               Weight
  0.000000  0.000000  0.000000      1.000000
  0.142857  0.000000  0.000000      2.000000
  0.285714  0.000000  0.000000      2.000000
  0.428571  0.000000  0.000000      2.000000
  0.000000  0.333333  0.000000      2.000000
  0.142857  0.333333  0.000000      4.000000
  0.285714  0.333333  0.000000      4.000000
  0.428571  0.333333  0.000000      4.000000
  0.000000  0.000000  0.200000      2.000000
  0.142857  0.000000  0.200000      4.000000
  0.285714  0.000000  0.200000      4.000000
  0.428571  0.000000  0.200000      4.000000
  0.000000  0.333333  0.200000      4.000000
  0.142857  0.333333  0.200000      8.000000
  0.285714  0.333333  0.200000      8.000000
  0.428571  0.333333  0.200000      8.000000
  0.000000  0.000000  0.400000      2.000000
  0.142857  0.000000  0.400000      4.000000
  0.285714  0.000000  0.400000      4.000000
  0.428571  0.000000  0.400000      4.000000
  0.000000  0.333333  0.400000      4.000000
  0.142857  0.333333  0.400000      8.000000
  0.285714  0.333333  0.400000      8.000000
  0.428571  0.333333  0.400000      8.000000
 
 Following cartesian coordinates:
            Coordinates               Weight
  0.000000  0.000000  0.000000      1.000000
  0.039581  0.000000  0.000000      2.000000
  0.079162  0.000000  0.000000      2.000000
  0.118743  0.000000  0.000000      2.000000
  0.000000  0.028791  0.000000      2.000000
  0.039581  0.028791  0.000000      4.000000
  0.079162  0.028791  0.000000      4.000000
  0.118743  0.028791  0.000000      4.000000
  0.000000  0.000000  0.045494      2.000000
  0.039581  0.000000  0.045494      4.000000
  0.079162  0.000000  0.045494      4.000000
  0.118743  0.000000  0.045494      4.000000
  0.000000  0.028791  0.045494      4.000000
  0.039581  0.028791  0.045494      8.000000
  0.079162  0.028791  0.045494      8.000000
  0.118743  0.028791  0.045494      8.000000
  0.000000  0.000000  0.090989      2.000000
  0.039581  0.000000  0.090989      4.000000
  0.079162  0.000000  0.090989      4.000000
  0.118743  0.000000  0.090989      4.000000
  0.000000  0.028791  0.090989      4.000000
  0.039581  0.028791  0.090989      8.000000
  0.079162  0.028791  0.090989      8.000000
  0.118743  0.028791  0.090989      8.000000
 


--------------------------------------------------------------------------------------------------------




 Dimension of arrays:
   k-points           NKPTS =     24   k-points in BZ     NKDIM =     24   number of bands    NBANDS=     56
   number of dos      NEDOS =    301   number of ions     NIONS =     14
   non local maximal  LDIM  =      6   non local SUM 2l+1 LMDIM =     18
   total plane-waves  NPLWV = 103680
   max r-space proj   IRMAX =      1   max aug-charges    IRDMAX=  34423
   dimension x,y,z NGX =    30 NGY =   96 NGZ =   36
   dimension x,y,z NGXF=    60 NGYF=  192 NGZF=   72
   support grid    NGXF=    60 NGYF=  192 NGZF=   72
   ions per type =               4  10
   NGX,Y,Z   is equivalent  to a cutoff of  13.82, 13.78, 13.61 a.u.
   NGXF,Y,Z  is equivalent  to a cutoff of  27.64, 27.57, 27.23 a.u.

 SYSTEM =  C48H56N8                                
 POSCAR =  V4 O10                                  

 Startparameter for this run:
   NWRITE =      2    write-flag & timer
   PREC   = accura    normal or accurate (medium, high low for compatibility)
   ISTART =      0    job   : 0-new  1-cont  2-samecut
   ICHARG =      2    charge: 1-file 2-atom 10-const
   ISPIN  =      2    spin polarized calculation?
   LNONCOLLINEAR =      F non collinear calculations
   LSORBIT =      F    spin-orbit coupling
   INIWAV =      1    electr: 0-lowe 1-rand  2-diag
   LASPH  =      F    aspherical Exc in radial PAW
 Electronic Relaxation 1
   ENCUT  =  600.0 eV  44.10 Ry    6.64 a.u.   7.21 23.12  8.78*2*pi/ulx,y,z
   ENINI  =  600.0     initial cutoff
   ENAUG  =  605.4 eV  augmentation charge cutoff
   NELM   =     60;   NELMIN=  2; NELMDL=  0     # of ELM steps 
   EDIFF  = 0.1E-07   stopping-criterion for ELM
   LREAL  =      F    real-space projection
   NLSPLINE    = F    spline interpolate recip. space projectors
   LCOMPAT=      F    compatible to vasp.4.4
   GGA_COMPAT  = T    GGA compatible to vasp.4.4-vasp.4.6
   LMAXPAW     = -100 max onsite density
   LMAXMIX     =    4 max onsite mixed and CHGCAR
   VOSKOWN=      0    Vosko Wilk Nusair interpolation
   ROPT   =    0.00000   0.00000
 Ionic relaxation
   EDIFFG = -.1E-02   stopping-criterion for IOM
   NSW    =    300    number of steps for IOM
   NBLOCK =      1;   KBLOCK =    300    inner block; outer block 
   IBRION =      2    ionic relax: 0-MD 1-quasi-New 2-CG
   NFREE  =      1    steps in history (QN), initial steepest desc. (CG)
   ISIF   =      3    stress and relaxation
   IWAVPR =     11    prediction:  0-non 1-charg 2-wave 3-comb
   ISYM   =      2    0-nonsym 1-usesym 2-fastsym
   LCORR  =      T    Harris-Foulkes like correction to forces

   POTIM  = 0.2000    time-step for ionic-motion
   TEIN   =    0.0    initial temperature
   TEBEG  =    0.0;   TEEND  =   0.0 temperature during run
   SMASS  =  -3.00    Nose mass-parameter (am)
   estimated Nose-frequenzy (Omega)   =  0.10E-29 period in steps = 0.31E+47 mass=  -0.298E-27a.u.
   SCALEE = 1.0000    scale energy and forces
   NPACO  =    256;   APACO  = 10.0  distance and # of slots for P.C.
   PSTRESS=    0.0 pullay stress

  Mass of Ions in am
   POMASS =  50.94 16.00
  Ionic Valenz
   ZVAL   =   5.00  6.00
  Atomic Wigner-Seitz radii
   RWIGS  =  -1.00 -1.00
  virtual crystal weights 
   VCA    =   1.00  1.00
   NELECT =      80.0000    total number of electrons
   NUPDOWN=      -1.0000    fix difference up-down

 DOS related values:
   EMIN   =  10.00;   EMAX   =-10.00  energy-range for DOS
   EFERMI =   0.00;   METHOD = LEGACY      
   ISMEAR =     0;   SIGMA  =   0.05  broadening in eV -4-tet -1-fermi 0-gaus

 Electronic relaxation 2 (details)
   IALGO  =     38    algorithm
   LDIAG  =      T    sub-space diagonalisation (order eigenvalues)
   LSUBROT=      F    optimize rotation matrix (better conditioning)
   TURBO    =      0    0=normal 1=particle mesh
   IRESTART =      0    0=no restart 2=restart with 2 vectors
   NREBOOT  =      0    no. of reboots
   NMIN     =      0    reboot dimension
   EREF     =   0.00    reference energy to select bands
   IMIX   =      4    mixing-type and parameters
     AMIX     =   0.40;   BMIX     =  1.00
     AMIX_MAG =   1.60;   BMIX_MAG =  1.00
     AMIN     =   0.10
     WC   =   100.;   INIMIX=   1;  MIXPRE=   1;  MAXMIX= -45

 Intra band minimization:
   WEIMIN = 0.0010     energy-eigenvalue tresh-hold
   EBREAK =  0.45E-10  absolut break condition
   DEPER  =   0.30     relativ break condition  

   TIME   =   0.40     timestep for ELM

  volume/ion in A,a.u.               =      13.12        88.55
  Fermi-wavevector in a.u.,A,eV,Ry     =   1.240899  2.344959 20.950658  1.539830
  Thomas-Fermi vector in A             =   2.375320
 
 Write flags
   LWAVE        =      F    write WAVECAR
   LDOWNSAMPLE  =      F    k-point downsampling of WAVECAR
   LCHARG       =      F    write CHGCAR
   LVTOT        =      F    write LOCPOT, total local potential
   LVHAR        =      F    write LOCPOT, Hartree potential only
   LELF         =      F    write electronic localiz. function (ELF)
   LORBIT       =     11    0 simple, 1 ext, 2 COOP (PROOUT), +10 PAW based schemes


 Dipole corrections
   LMONO  =      F    monopole corrections only (constant potential shift)
   LDIPOL =      F    correct potential (dipole corrections)
   IDIPOL =      0    1-x, 2-y, 3-z, 4-all directions 
   EPSILON=  1.0000000 bulk dielectric constant

 LDA+U is selected, type is set to LDAUTYPE =  2
   angular momentum for each species LDAUL =     2   -1
   U (eV)           for each species LDAUU =   3.0  0.0
   J (eV)           for each species LDAUJ =   0.0  0.0
 Exchange correlation treatment:
   GGA     =    PE    GGA type
   LEXCH   =     8    internal setting for exchange type
   LIBXC   =     F    Libxc                    
   VOSKOWN =     0    Vosko Wilk Nusair interpolation
   LHFCALC =     F    Hartree Fock is set to
   LHFONE  =     F    Hartree Fock one center treatment
   AEXX    =    0.0000 exact exchange contribution

 Linear response parameters
   LEPSILON=     F    determine dielectric tensor
   LRPA    =     F    only Hartree local field effects (RPA)
   LNABLA  =     F    use nabla operator in PAW spheres
   LVEL    =     F    velocity operator in full k-point grid
   CSHIFT  =0.1000    complex shift for real part using Kramers Kronig
   OMEGAMAX=  -1.0    maximum frequency
   DEG_THRESHOLD= 0.2000000E-02 threshold for treating states as degnerate
   RTIME   =   -0.100 relaxation time in fs
  (WPLASMAI=    0.000 imaginary part of plasma frequency in eV, 0.658/RTIME)
   DFIELD  = 0.0000000 0.0000000 0.0000000 field for delta impulse in time
 
  Optional k-point grid parameters
   LKPOINTS_OPT  =     F    use optional k-point grid
   KPOINTS_OPT_MODE=     1    mode for optional k-point grid
 
 Orbital magnetization related:
   ORBITALMAG=     F  switch on orbital magnetization
   LCHIMAG   =     F  perturbation theory with respect to B field
   DQ        =  0.001000  dq finite difference perturbation B field
   LLRAUG    =     F  two centre corrections for induced B field
   LBONE     =     F  B-component reconstruction in AE one-centre
   LVGVCALC  =     T  calculate vGv susceptibility
   LVGVAPPL  =     F  apply vGv susceptibility instead of pGv for G=0

 Random number generation:
   RANDOM_GENERATOR = DEFAULT
   PCG_SEED         = not used


--------------------------------------------------------------------------------------------------------


 conjugate gradient relaxation of ions
 charge density and potential will be updated during run
 spin polarized calculation
 Variant of blocked Davidson
 Davidson routine will perform the subspace rotation
 perform sub-space diagonalisation
    after iterative eigenvector-optimisation
 modified Broyden-mixing scheme, WC =      100.0
 initial mixing is a Kerker type mixing with AMIX =  0.4000 and BMIX =      1.0000
 Hartree-type preconditioning will be used
 using additional bands           16
 reciprocal scheme for non local part
 use partial core corrections
 calculate Harris-corrections to forces 
   (improved forces if not selfconsistent)
 use gradient corrections 
 use of overlap-Matrix (Vanderbilt PP)
 Gauss-broadening in eV      SIGMA  =   0.05


--------------------------------------------------------------------------------------------------------


  energy-cutoff  :      600.00
  volume of cell :      183.70
      direct lattice vectors                 reciprocal lattice vectors
     3.609240018  0.000000000  0.000000000     0.277066639  0.000000000  0.000000000
     0.000000000 11.577544551  0.000000000     0.000000000  0.086374101  0.000000000
     0.000000000  0.000000000  4.396156302     0.000000000  0.000000000  0.227471439

  length of vectors
     3.609240018 11.577544551  4.396156302     0.277066639  0.086374101  0.227471439


 
 k-points in units of 2pi/SCALE and weight: K-points                                
   0.00000000  0.00000000  0.00000000       0.010
   0.03958095  0.00000000  0.00000000       0.019
   0.07916190  0.00000000  0.00000000       0.019
   0.11874285  0.00000000  0.00000000       0.019
   0.00000000  0.02879137  0.00000000       0.019
   0.03958095  0.02879137  0.00000000       0.038
   0.07916190  0.02879137  0.00000000       0.038
   0.11874285  0.02879137  0.00000000       0.038
   0.00000000  0.00000000  0.04549429       0.019
   0.03958095  0.00000000  0.04549429       0.038
   0.07916190  0.00000000  0.04549429       0.038
   0.11874285  0.00000000  0.04549429       0.038
   0.00000000  0.02879137  0.04549429       0.038
   0.03958095  0.02879137  0.04549429       0.076
   0.07916190  0.02879137  0.04549429       0.076
   0.11874285  0.02879137  0.04549429       0.076
   0.00000000  0.00000000  0.09098858       0.019
   0.03958095  0.00000000  0.09098858       0.038
   0.07916190  0.00000000  0.09098858       0.038
   0.11874285  0.00000000  0.09098858       0.038
   0.00000000  0.02879137  0.09098858       0.038
   0.03958095  0.02879137  0.09098858       0.076
   0.07916190  0.02879137  0.09098858       0.076
   0.11874285  0.02879137  0.09098858       0.076
 
 k-points in reciprocal lattice and weights: K-points                                
   0.00000000  0.00000000  0.00000000       0.010
   0.14285714  0.00000000  0.00000000       0.019
   0.28571429  0.00000000  0.00000000       0.019
   0.42857143  0.00000000  0.00000000       0.019
   0.00000000  0.33333333  0.00000000       0.019
   0.14285714  0.33333333  0.00000000       0.038
   0.28571429  0.33333333  0.00000000       0.038
   0.42857143  0.33333333  0.00000000       0.038
   0.00000000  0.00000000  0.20000000       0.019
   0.14285714  0.00000000  0.20000000       0.038
   0.28571429  0.00000000  0.20000000       0.038
   0.42857143  0.00000000  0.20000000       0.038
   0.00000000  0.33333333  0.20000000       0.038
   0.14285714  0.33333333  0.20000000       0.076
   0.28571429  0.33333333  0.20000000       0.076
   0.42857143  0.33333333  0.20000000       0.076
   0.00000000  0.00000000  0.40000000       0.019
   0.14285714  0.00000000  0.40000000       0.038
   0.28571429  0.00000000  0.40000000       0.038
   0.42857143  0.00000000  0.40000000       0.038
   0.00000000  0.33333333  0.40000000       0.038
   0.14285714  0.33333333  0.40000000       0.076
   0.28571429  0.33333333  0.40000000       0.076
   0.42857143  0.33333333  0.40000000       0.076
 
 position of ions in fractional coordinates (direct lattice) 
   0.00000000  0.14925117  0.10806791
   0.00000000  0.85074884  0.10806791
   0.50000000  0.64925116  0.89193210
   0.50000000  0.35074884  0.89193210
   0.00000000  0.14489197  0.47305393
   0.00000000  0.85510804  0.47305393
   0.50000000  0.64489196  0.52694607
   0.50000000  0.35510804  0.52694607
   0.00000000  0.31922954  0.99755874
   0.00000000  0.68077049  0.99755874
   0.50000000  0.81922951  0.00244126
   0.50000000  0.18077046  0.00244126
   0.00000000  0.00000000  0.99804078
   0.50000000  0.50000000  0.00195924
 
 position of ions in cartesian coordinates  (Angst):
   0.00000000  1.72796210  0.47508343
   0.00000000  9.84958263  0.47508343
   1.80462001  7.51673420  3.92107294
   1.80462001  4.06081035  3.92107294
   0.00000000  1.67749327  2.07961902
   0.00000000  9.90005145  2.07961902
   1.80462001  7.46626538  2.31653728
   1.80462001  4.11127917  2.31653728
   0.00000000  3.69589422  4.38542415
   0.00000000  7.88165066  4.38542415
   1.80462001  9.48466616  0.01073215
   1.80462001  2.09287805  0.01073215
   0.00000000  0.00000000  4.38754327
   1.80462001  5.78877228  0.00861310
 


--------------------------------------------------------------------------------------------------------


 k-point   1 :   0.0000 0.0000 0.0000  plane waves:    6121
 k-point   2 :   0.1429 0.0000 0.0000  plane waves:    6127
 k-point   3 :   0.2857 0.0000 0.0000  plane waves:    6118
 k-point   4 :   0.4286 0.0000 0.0000  plane waves:    6136
 k-point   5 :   0.0000 0.3333 0.0000  plane waves:    6120
 k-point   6 :   0.1429 0.3333 0.0000  plane waves:    6139
 k-point   7 :   0.2857 0.3333 0.0000  plane waves:    6142
 k-point   8 :   0.4286 0.3333 0.0000  plane waves:    6126
 k-point   9 :   0.0000 0.0000 0.2000  plane waves:    6147
 k-point  10 :   0.1429 0.0000 0.2000  plane waves:    6125
 k-point  11 :   0.2857 0.0000 0.2000  plane waves:    6127
 k-point  12 :   0.4286 0.0000 0.2000  plane waves:    6128
 k-point  13 :   0.0000 0.3333 0.2000  plane waves:    6129
 k-point  14 :   0.1429 0.3333 0.2000  plane waves:    6119
 k-point  15 :   0.2857 0.3333 0.2000  plane waves:    6125
 k-point  16 :   0.4286 0.3333 0.2000  plane waves:    6120
 k-point  17 :   0.0000 0.0000 0.4000  plane waves:    6130
 k-point  18 :   0.1429 0.0000 0.4000  plane waves:    6116
 k-point  19 :   0.2857 0.0000 0.4000  plane waves:    6140
 k-point  20 :   0.4286 0.0000 0.4000  plane waves:    6156
 k-point  21 :   0.0000 0.3333 0.4000  plane waves:    6129
 k-point  22 :   0.1429 0.3333 0.4000  plane waves:    6131
 k-point  23 :   0.2857 0.3333 0.4000  plane waves:    6127
 k-point  24 :   0.4286 0.3333 0.4000  plane waves:    6145

 maximum and minimum number of plane-waves per node :       779      747

 maximum number of plane-waves:      6156
 maximum index in each direction: 
   IXMAX=    7   IYMAX=   23   IZMAX=    8
   IXMIN=   -7   IYMIN=  -23   IZMIN=   -9


 parallel 3D FFT for wavefunctions:
    minimum data exchange during FFTs selected (reduces bandwidth)
 parallel 3D FFT for charge:
    minimum data exchange during FFTs selected (reduces bandwidth)


 total amount of memory used by VASP MPI-rank0    48973. kBytes
=======================================================================

   base      :      30000. kBytes
   nonl-proj :       5537. kBytes
   fftplans  :       1351. kBytes
   grid      :       3379. kBytes
   one-center:         62. kBytes
   wavefun   :       8644. kBytes
 
     INWAV:  cpu time      0.0000: real time      0.0000
 Broyden mixing: mesh for mixing (old mesh)
   NGX = 15   NGY = 47   NGZ = 17
  (NGX  = 60   NGY  =192   NGZ  = 72)
  gives a total of  11985 points

 initial charge density was supplied:
 charge density of overlapping atoms calculated
 number of electron      80.0000000 magnetization      14.0000000
 keeping initial charge density in first step


--------------------------------------------------------------------------------------------------------


 Maximum index for augmentation-charges         1242 (set IRDMAX)


--------------------------------------------------------------------------------------------------------


 First call to EWALD:  gamma=   0.312
 Maximum number of real-space cells 4x 2x 3
 Maximum number of reciprocal cells 2x 5x 2

    FEWALD:  cpu time      0.0013: real time      0.0019


--------------------------------------- Ionic step        1  -------------------------------------------




--------------------------------------- Iteration      1(   1)  ---------------------------------------


    POTLOK:  cpu time      0.0323: real time      0.0544
    SETDIJ:  cpu time      0.0074: real time      0.0127
     EDDAV:  cpu time      1.7986: real time      1.8288
       DOS:  cpu time      0.0026: real time      0.0043
    --------------------------------------------
      LOOP:  cpu time      1.8409: real time      1.9002

 eigenvalue-minimisations  :  5376
 total energy-change (2. order) : 0.1199938E+04  (-0.3553603E+04)
 number of electron      80.0000000 magnetization      14.0000000
 augmentation part       80.0000000 magnetization      14.0000000

 Free energy of the ion-electron system (eV)
  ---------------------------------------------------
  alpha Z        PSCENC =       208.84953610
  Ewald energy   TEWEN  =     -3400.34808675
  -Hartree energ DENC   =     -1596.99100431
  -exchange      EXHF   =         0.00000000
  -V(xc)+E(xc)   XCENC  =        88.69347996
  PAW double counting   =      4288.67660640    -4102.07878449
  entropy T*S    EENTRO =        -0.00688047
  eigenvalues    EBANDS =       706.05229826
  atomic energy  EATOM  =      5007.09061442
  Solvation  Ediel_sol  =         0.00000000
  ---------------------------------------------------
  free energy    TOTEN  =      1199.93777911 eV

  energy without entropy =     1199.94465958  energy(sigma->0) =     1199.94121935


--------------------------------------------------------------------------------------------------------




--------------------------------------- Iteration      1(   2)  ---------------------------------------


     EDDAV:  cpu time      1.8024: real time      1.8192
       DOS:  cpu time      0.0021: real time      0.0021
    --------------------------------------------
      LOOP:  cpu time      1.8045: real time      1.8213

 eigenvalue-minimisations  :  5712
 total energy-change (2. order) :-0.9913896E+03  (-0.8772993E+03)
 number of electron      80.0000000 magnetization      14.0000000
 augmentation part       80.0000000 magnetization      14.0000000

 Free energy of the ion-electron system (eV)
  ---------------------------------------------------
  alpha Z        PSCENC =       208.84953610
  Ewald energy   TEWEN  =     -3400.34808675
  -Hartree energ DENC   =     -1596.99100431
  -exchange      EXHF   =         0.00000000
  -V(xc)+E(xc)   XCENC  =        88.69347996
  PAW double counting   =      4288.67660640    -4102.07878449
  entropy T*S    EENTRO =        -0.01043102
  eigenvalues    EBANDS =      -285.33372884
  atomic energy  EATOM  =      5007.09061442
  Solvation  Ediel_sol  =         0.00000000
  ---------------------------------------------------
  free energy    TOTEN  =       208.54820146 eV

  energy without entropy =      208.55863248  energy(sigma->0) =      208.55341697


--------------------------------------------------------------------------------------------------------




--------------------------------------- Iteration      1(   3)  ---------------------------------------


     EDDAV:  cpu time      2.0611: real time      2.0657
       DOS:  cpu time      0.0009: real time      0.0009
    --------------------------------------------
      LOOP:  cpu time      2.0620: real time      2.0666

 eigenvalue-minimisations  :  7048
 total energy-change (2. order) :-0.3219686E+03  (-0.2984293E+03)
 number of electron      80.0000000 magnetization      14.0000000
 augmentation part       80.0000000 magnetization      14.0000000

 Free energy of the ion-electron system (eV)
  ---------------------------------------------------
  alpha Z        PSCENC =       208.84953610
  Ewald energy   TEWEN  =     -3400.34808675
  -Hartree energ DENC   =     -1596.99100431
  -exchange      EXHF   =         0.00000000
  -V(xc)+E(xc)   XCENC  =        88.69347996
  PAW double counting   =      4288.67660640    -4102.07878449
  entropy T*S    EENTRO =        -0.00000000
  eigenvalues    EBANDS =      -607.31275621
  atomic energy  EATOM  =      5007.09061442
  Solvation  Ediel_sol  =         0.00000000
  ---------------------------------------------------
  free energy    TOTEN  =      -113.42039489 eV

  energy without entropy =     -113.42039489  energy(sigma->0) =     -113.42039489


--------------------------------------------------------------------------------------------------------




--------------------------------------- Iteration      1(   4)  ---------------------------------------


     EDDAV:  cpu time      2.4171: real time      2.4225
       DOS:  cpu time      0.0010: real time      0.0010
    --------------------------------------------
      LOOP:  cpu time      2.4180: real time      2.4235

 eigenvalue-minimisations  :  8736
 total energy-change (2. order) :-0.3004148E+02  (-0.2982391E+02)
 number of electron      80.0000000 magnetization      14.0000000
 augmentation part       80.0000000 magnetization      14.0000000

 Free energy of the ion-electron system (eV)
  ---------------------------------------------------
  alpha Z        PSCENC =       208.84953610
  Ewald energy   TEWEN  =     -3400.34808675
  -Hartree energ DENC   =     -1596.99100431
  -exchange      EXHF   =         0.00000000
  -V(xc)+E(xc)   XCENC  =        88.69347996
  PAW double counting   =      4288.67660640    -4102.07878449
  entropy T*S    EENTRO =        -0.00000000
  eigenvalues    EBANDS =      -637.35423649
  atomic energy  EATOM  =      5007.09061442
  Solvation  Ediel_sol  =         0.00000000
  ---------------------------------------------------
  free energy    TOTEN  =      -143.46187517 eV

  energy without entropy =     -143.46187517  energy(sigma->0) =     -143.46187517


--------------------------------------------------------------------------------------------------------




--------------------------------------- Iteration      1(   5)  ---------------------------------------


     EDDAV:  cpu time      2.3644: real time      2.3701
       DOS:  cpu time      0.0009: real time      0.0009
    CHARGE:  cpu time      0.0845: real time      0.0900
    MIXING:  cpu time      0.0048: real time      0.0123
    --------------------------------------------
      LOOP:  cpu time      2.4546: real time      2.4733

 eigenvalue-minimisations  :  8600
 total energy-change (2. order) :-0.7042058E+00  (-0.7023248E+00)
 number of electron      79.9999968 magnetization       8.9036020
 augmentation part       10.0423926 magnetization       8.9892333

 Broyden mixing:
  rms(total) = 0.90987E+01    rms(broyden)= 0.90986E+01
  rms(prec ) = 0.97480E+01
  weight for this iteration     100.00

 Free energy of the ion-electron system (eV)
  ---------------------------------------------------
  alpha Z        PSCENC =       208.84953610
  Ewald energy   TEWEN  =     -3400.34808675
  -Hartree energ DENC   =     -1596.99100431
  -exchange      EXHF   =         0.00000000
  -V(xc)+E(xc)   XCENC  =        88.69347996
  PAW double counting   =      4288.67660640    -4102.07878449
  entropy T*S    EENTRO =        -0.00000000
  eigenvalues    EBANDS =      -638.05844231
  atomic energy  EATOM  =      5007.09061442
  Solvation  Ediel_sol  =         0.00000000
  ---------------------------------------------------
  free energy    TOTEN  =      -144.16608099 eV

  energy without entropy =     -144.16608099  energy(sigma->0) =     -144.16608099


--------------------------------------------------------------------------------------------------------




--------------------------------------- Iteration      1(   6)  ---------------------------------------


    POTLOK:  cpu time      0.0249: real time      0.0250
    SETDIJ:  cpu time      0.0059: real time      0.0059
     EDDAV:  cpu time      2.2374: real time      2.2423
       DOS:  cpu time      0.0025: real time      0.0025
    CHARGE:  cpu time      0.0824: real time      0.0826
    MIXING:  cpu time      0.0022: real time      0.0043
    --------------------------------------------
      LOOP:  cpu time      2.3554: real time      2.3625

 eigenvalue-minimisations  :  7960
 total energy-change (2. order) : 0.3542669E+02  (-0.3274072E+02)
 number of electron      79.9999990 magnetization       7.6265437
 augmentation part       21.2835371 magnetization       4.9602293

 Broyden mixing:
  rms(total) = 0.68152E+01    rms(broyden)= 0.68146E+01
  rms(prec ) = 0.88149E+01
  weight for this iteration     100.00

 eigenvalues of (default mixing * dielectric matrix)
  average eigenvalue GAMMA=   0.6329
  0.6329

 Free energy of the ion-electron system (eV)
  ---------------------------------------------------
  alpha Z        PSCENC =       208.84953610
  Ewald energy   TEWEN  =     -3400.34808675
  -Hartree energ DENC   =     -1767.78283379
  -exchange      EXHF   =         0.00000000
  -V(xc)+E(xc)   XCENC  =       118.03271660
  PAW double counting   =      5606.29928463    -5419.38213553
  entropy T*S    EENTRO =        -0.01397912
  eigenvalues    EBANDS =      -461.48451232
  atomic energy  EATOM  =      5007.09061442
  Solvation  Ediel_sol  =         0.00000000
  ---------------------------------------------------
  free energy    TOTEN  =      -108.73939576 eV

  energy without entropy =     -108.72541665  energy(sigma->0) =     -108.73240620


--------------------------------------------------------------------------------------------------------




--------------------------------------- Iteration      1(   7)  ---------------------------------------


    POTLOK:  cpu time      0.0261: real time      0.0261
    SETDIJ:  cpu time      0.0057: real time      0.0057
     EDDAV:  cpu time      2.1895: real time      2.1944
       DOS:  cpu time      0.0009: real time      0.0009
    CHARGE:  cpu time      0.0771: real time      0.0773
    MIXING:  cpu time      0.0008: real time      0.0008
    --------------------------------------------
      LOOP:  cpu time      2.3001: real time      2.3052

 eigenvalue-minimisations  :  7640
 total energy-change (2. order) :-0.1080992E+02  (-0.3966689E+02)
 number of electron      79.9999973 magnetization       3.1199752
 augmentation part        9.4121613 magnetization       2.7531871

 Broyden mixing:
  rms(total) = 0.50006E+01    rms(broyden)= 0.50003E+01
  rms(prec ) = 0.56267E+01
  weight for this iteration     100.00

 eigenvalues of (default mixing * dielectric matrix)
  average eigenvalue GAMMA=   1.0005
  1.6395  0.3615

 Free energy of the ion-electron system (eV)
  ---------------------------------------------------
  alpha Z        PSCENC =       208.84953610
  Ewald energy   TEWEN  =     -3400.34808675
  -Hartree energ DENC   =     -1696.35843255
  -exchange      EXHF   =         0.00000000
  -V(xc)+E(xc)   XCENC  =        98.60612806
  PAW double counting   =      5859.45897905    -5681.37837066
  entropy T*S    EENTRO =        -0.00000000
  eigenvalues    EBANDS =      -515.46968308
  atomic energy  EATOM  =      5007.09061442
  Solvation  Ediel_sol  =         0.00000000
  ---------------------------------------------------
  free energy    TOTEN  =      -119.54931542 eV

  energy without entropy =     -119.54931542  energy(sigma->0) =     -119.54931542


--------------------------------------------------------------------------------------------------------




--------------------------------------- Iteration      1(   8)  ---------------------------------------


    POTLOK:  cpu time      0.0259: real time      0.0259
    SETDIJ:  cpu time      0.0054: real time      0.0054
     EDDAV:  cpu time      2.2538: real time      2.2589
       DOS:  cpu time      0.0011: real time      0.0010
    CHARGE:  cpu time      0.0775: real time      0.0777
    MIXING:  cpu time      0.0007: real time      0.0007
    --------------------------------------------
      LOOP:  cpu time      2.3644: real time      2.3697

 eigenvalue-minimisations  :  8176
 total energy-change (2. order) : 0.9300252E+01  (-0.5070904E+01)
 number of electron      79.9999972 magnetization       2.4822095
 augmentation part       10.5459702 magnetization       2.3409142

 Broyden mixing:
  rms(total) = 0.24584E+01    rms(broyden)= 0.24583E+01
  rms(prec ) = 0.31600E+01
  weight for this iteration     100.00

 eigenvalues of (default mixing * dielectric matrix)
  average eigenvalue GAMMA=   0.9770
  0.4060  0.7967  1.7282

 Free energy of the ion-electron system (eV)
  ---------------------------------------------------
  alpha Z        PSCENC =       208.84953610
  Ewald energy   TEWEN  =     -3400.34808675
  -Hartree energ DENC   =     -1706.08908569
  -exchange      EXHF   =         0.00000000
  -V(xc)+E(xc)   XCENC  =        98.72384961
  PAW double counting   =      7261.17963271    -7082.78093779
  entropy T*S    EENTRO =        -0.00000000
  eigenvalues    EBANDS =      -496.87458647
  atomic energy  EATOM  =      5007.09061442
  Solvation  Ediel_sol  =         0.00000000
  ---------------------------------------------------
  free energy    TOTEN  =      -110.24906386 eV

  energy without entropy =     -110.24906386  energy(sigma->0) =     -110.24906386


--------------------------------------------------------------------------------------------------------




--------------------------------------- Iteration      1(   9)  ---------------------------------------


    POTLOK:  cpu time      0.0258: real time      0.0259
    SETDIJ:  cpu time      0.0054: real time      0.0054
     EDDAV:  cpu time      2.5637: real time      2.5688
       DOS:  cpu time      0.0011: real time      0.0011
    CHARGE:  cpu time      0.0764: real time      0.0766
    MIXING:  cpu time      0.0008: real time      0.0008
    --------------------------------------------
      LOOP:  cpu time      2.6732: real time      2.6786

 eigenvalue-minimisations  :  9440
 total energy-change (2. order) : 0.7195423E+01  (-0.1634636E+01)
 number of electron      79.9999975 magnetization       2.5699391
 augmentation part       11.3050131 magnetization       2.4557074

 Broyden mixing:
  rms(total) = 0.13865E+01    rms(broyden)= 0.13865E+01
  rms(prec ) = 0.16553E+01
  weight for this iteration     100.00

 eigenvalues of (default mixing * dielectric matrix)
  average eigenvalue GAMMA=   0.8800
  1.2513  1.2513  0.3882  0.6292

 Free energy of the ion-electron system (eV)
  ---------------------------------------------------
  alpha Z        PSCENC =       208.84953610
  Ewald energy   TEWEN  =     -3400.34808675
  -Hartree energ DENC   =     -1734.42244934
  -exchange      EXHF   =         0.00000000
  -V(xc)+E(xc)   XCENC  =       100.67457125
  PAW double counting   =      7266.68915977    -7086.86763732
  entropy T*S    EENTRO =        -0.00000000
  eigenvalues    EBANDS =      -464.71934881
  atomic energy  EATOM  =      5007.09061442
  Solvation  Ediel_sol  =         0.00000000
  ---------------------------------------------------
  free energy    TOTEN  =      -103.05364069 eV

  energy without entropy =     -103.05364069  energy(sigma->0) =     -103.05364069


--------------------------------------------------------------------------------------------------------




--------------------------------------- Iteration      1(  10)  ---------------------------------------


    POTLOK:  cpu time      0.0252: real time      0.0253
    SETDIJ:  cpu time      0.0055: real time      0.0055
     EDDAV:  cpu time      2.5099: real time      2.5154
       DOS:  cpu time      0.0011: real time      0.0011
    CHARGE:  cpu time      0.0803: real time      0.0805
    MIXING:  cpu time      0.0007: real time      0.0007
    --------------------------------------------
      LOOP:  cpu time      2.6229: real time      2.6286

 eigenvalue-minimisations  :  9200
 total energy-change (2. order) : 0.9961917E+00  (-0.2168265E+00)
 number of electron      79.9999976 magnetization       2.5166907
 augmentation part       11.6291210 magnetization       2.3917005

 Broyden mixing:
  rms(total) = 0.10383E+01    rms(broyden)= 0.10382E+01
  rms(prec ) = 0.11978E+01
  weight for this iteration     100.00

 eigenvalues of (default mixing * dielectric matrix)
  average eigenvalue GAMMA=   0.7324
  1.2215  1.2215  0.6082  0.3739  0.2371

 Free energy of the ion-electron system (eV)
  ---------------------------------------------------
  alpha Z        PSCENC =       208.84953610
  Ewald energy   TEWEN  =     -3400.34808675
  -Hartree energ DENC   =     -1730.72212050
  -exchange      EXHF   =         0.00000000
  -V(xc)+E(xc)   XCENC  =       100.78178748
  PAW double counting   =      7055.55293545    -6874.29718738
  entropy T*S    EENTRO =        -0.00000000
  eigenvalues    EBANDS =      -468.96492783
  atomic energy  EATOM  =      5007.09061442
  Solvation  Ediel_sol  =         0.00000000
  ---------------------------------------------------
  free energy    TOTEN  =      -102.05744903 eV

  energy without entropy =     -102.05744903  energy(sigma->0) =     -102.05744903


--------------------------------------------------------------------------------------------------------




--------------------------------------- Iteration      1(  11)  ---------------------------------------


    POTLOK:  cpu time      0.0258: real time      0.0259
    SETDIJ:  cpu time      0.0057: real time      0.0057
     EDDAV:  cpu time      2.2098: real time      2.2145
       DOS:  cpu time      0.0011: real time      0.0011
    CHARGE:  cpu time      0.0792: real time      0.0793
    MIXING:  cpu time      0.0008: real time      0.0008
    --------------------------------------------
      LOOP:  cpu time      2.3225: real time      2.3273

 eigenvalue-minimisations  :  7736
 total energy-change (2. order) : 0.5800055E-01  (-0.1264386E-01)
 number of electron      79.9999976 magnetization       1.2596951
 augmentation part       11.6637735 magnetization       1.1398153

 Broyden mixing:
  rms(total) = 0.97269E+00    rms(broyden)= 0.97269E+00
  rms(prec ) = 0.11259E+01
  weight for this iteration     100.00

 eigenvalues of (default mixing * dielectric matrix)
  average eigenvalue GAMMA=   1.0732
  1.6880  1.6880  1.0144  1.0144  0.3967  0.6375

 Free energy of the ion-electron system (eV)
  ---------------------------------------------------
  alpha Z        PSCENC =       208.84953610
  Ewald energy   TEWEN  =     -3400.34808675
  -Hartree energ DENC   =     -1728.99857489
  -exchange      EXHF   =         0.00000000
  -V(xc)+E(xc)   XCENC  =       100.69107137
  PAW double counting   =      7031.01326417    -6849.51140096
  entropy T*S    EENTRO =        -0.00000000
  eigenvalues    EBANDS =      -470.78587193
  atomic energy  EATOM  =      5007.09061442
  Solvation  Ediel_sol  =         0.00000000
  ---------------------------------------------------
  free energy    TOTEN  =      -101.99944848 eV

  energy without entropy =     -101.99944848  energy(sigma->0) =     -101.99944848


--------------------------------------------------------------------------------------------------------




--------------------------------------- Iteration      1(  12)  ---------------------------------------


    POTLOK:  cpu time      0.0257: real time      0.0257
    SETDIJ:  cpu time      0.0054: real time      0.0055
     EDDAV:  cpu time      2.3103: real time      2.3151
       DOS:  cpu time      0.0011: real time      0.0011
    CHARGE:  cpu time      0.0780: real time      0.0782
    MIXING:  cpu time      0.0010: real time      0.0010
    --------------------------------------------
      LOOP:  cpu time      2.4215: real time      2.4266

 eigenvalue-minimisations  :  8160
 total energy-change (2. order) :-0.1347260E+00  (-0.3806001E+00)
 number of electron      79.9999978 magnetization       0.2024715
 augmentation part       12.8083949 magnetization       0.1126140

 Broyden mixing:
  rms(total) = 0.59019E+00    rms(broyden)= 0.59017E+00
  rms(prec ) = 0.62711E+00
  weight for this iteration     100.00

 eigenvalues of (default mixing * dielectric matrix)
  average eigenvalue GAMMA=   1.2239
  2.5330  2.5330  1.1031  0.9052  0.3942  0.5492  0.5492

 Free energy of the ion-electron system (eV)
  ---------------------------------------------------
  alpha Z        PSCENC =       208.84953610
  Ewald energy   TEWEN  =     -3400.34808675
  -Hartree energ DENC   =     -1705.03092349
  -exchange      EXHF   =         0.00000000
  -V(xc)+E(xc)   XCENC  =        99.63939277
  PAW double counting   =      6812.22604338    -6627.03551366
  entropy T*S    EENTRO =        -0.00000000
  eigenvalues    EBANDS =      -497.52523721
  atomic energy  EATOM  =      5007.09061442
  Solvation  Ediel_sol  =         0.00000000
  ---------------------------------------------------
  free energy    TOTEN  =      -102.13417445 eV

  energy without entropy =     -102.13417445  energy(sigma->0) =     -102.13417445


--------------------------------------------------------------------------------------------------------




--------------------------------------- Iteration      1(  13)  ---------------------------------------


    POTLOK:  cpu time      0.0258: real time      0.0259
    SETDIJ:  cpu time      0.0060: real time      0.0060
     EDDAV:  cpu time      2.4390: real time      2.4447
       DOS:  cpu time      0.0014: real time      0.0014
    CHARGE:  cpu time      0.0796: real time      0.0798
    MIXING:  cpu time      0.0010: real time      0.0010
    --------------------------------------------
      LOOP:  cpu time      2.5529: real time      2.5588

 eigenvalue-minimisations  :  8768
 total energy-change (2. order) :-0.1055232E+01  (-0.1680160E+00)
 number of electron      79.9999978 magnetization       0.0607493
 augmentation part       13.3656739 magnetization       0.0485558

 Broyden mixing:
  rms(total) = 0.62389E+00    rms(broyden)= 0.62389E+00
  rms(prec ) = 0.79931E+00
  weight for this iteration     100.00

 eigenvalues of (default mixing * dielectric matrix)
  average eigenvalue GAMMA=   1.1240
  2.4576  2.4576  1.0571  0.8087  0.3970  0.6465  0.5839  0.5839

 Free energy of the ion-electron system (eV)
  ---------------------------------------------------
  alpha Z        PSCENC =       208.84953610
  Ewald energy   TEWEN  =     -3400.34808675
  -Hartree energ DENC   =     -1684.12362733
  -exchange      EXHF   =         0.00000000
  -V(xc)+E(xc)   XCENC  =        98.58022337
  PAW double counting   =      6593.62128316    -6405.96728097
  entropy T*S    EENTRO =        -0.00000000
  eigenvalues    EBANDS =      -520.89206892
  atomic energy  EATOM  =      5007.09061442
  Solvation  Ediel_sol  =         0.00000000
  ---------------------------------------------------
  free energy    TOTEN  =      -103.18940693 eV

  energy without entropy =     -103.18940693  energy(sigma->0) =     -103.18940693


--------------------------------------------------------------------------------------------------------




--------------------------------------- Iteration      1(  14)  ---------------------------------------


    POTLOK:  cpu time      0.0262: real time      0.0263
    SETDIJ:  cpu time      0.0059: real time      0.0059
     EDDAV:  cpu time      2.3176: real time      2.3227
       DOS:  cpu time      0.0011: real time      0.0011
    CHARGE:  cpu time      0.0776: real time      0.0778
    MIXING:  cpu time      0.0008: real time      0.0008
    --------------------------------------------
      LOOP:  cpu time      2.4292: real time      2.4346

 eigenvalue-minimisations  :  8240
 total energy-change (2. order) : 0.3099434E+00  (-0.4311481E-01)
 number of electron      79.9999978 magnetization      -0.0555825
 augmentation part       13.1189137 magnetization      -0.0363963

 Broyden mixing:
  rms(total) = 0.48927E+00    rms(broyden)= 0.48927E+00
  rms(prec ) = 0.61724E+00
  weight for this iteration     100.00

 eigenvalues of (default mixing * dielectric matrix)
  average eigenvalue GAMMA=   1.1393
  2.6234  1.5573  1.5573  1.0238  1.0238  0.3961  0.8185  0.6268  0.6268

 Free energy of the ion-electron system (eV)
  ---------------------------------------------------
  alpha Z        PSCENC =       208.84953610
  Ewald energy   TEWEN  =     -3400.34808675
  -Hartree energ DENC   =     -1691.80471447
  -exchange      EXHF   =         0.00000000
  -V(xc)+E(xc)   XCENC  =        98.90600984
  PAW double counting   =      6656.13798573    -6469.24872632
  entropy T*S    EENTRO =        -0.00000000
  eigenvalues    EBANDS =      -512.46208206
  atomic energy  EATOM  =      5007.09061442
  Solvation  Ediel_sol  =         0.00000000
  ---------------------------------------------------
  free energy    TOTEN  =      -102.87946351 eV

  energy without entropy =     -102.87946351  energy(sigma->0) =     -102.87946351


--------------------------------------------------------------------------------------------------------




--------------------------------------- Iteration      1(  15)  ---------------------------------------


    POTLOK:  cpu time      0.0253: real time      0.0254
    SETDIJ:  cpu time      0.0054: real time      0.0055
     EDDAV:  cpu time      2.1518: real time      2.1569
       DOS:  cpu time      0.0011: real time      0.0012
    CHARGE:  cpu time      0.0766: real time      0.0767
    MIXING:  cpu time      0.0009: real time      0.0009
    --------------------------------------------
      LOOP:  cpu time      2.2612: real time      2.2665

 eigenvalue-minimisations  :  7432
 total energy-change (2. order) : 0.3179638E+00  (-0.2973577E-01)
 number of electron      79.9999978 magnetization      -0.0262355
 augmentation part       12.7401822 magnetization      -0.0022647

 Broyden mixing:
  rms(total) = 0.19590E+00    rms(broyden)= 0.19590E+00
  rms(prec ) = 0.24068E+00
  weight for this iteration     100.00

 eigenvalues of (default mixing * dielectric matrix)
  average eigenvalue GAMMA=   1.1615
  2.8927  1.7205  1.7205  0.9749  0.9749  0.8579  0.8579  0.3962  0.6096  0.6096

 Free energy of the ion-electron system (eV)
  ---------------------------------------------------
  alpha Z        PSCENC =       208.84953610
  Ewald energy   TEWEN  =     -3400.34808675
  -Hartree energ DENC   =     -1701.13549919
  -exchange      EXHF   =         0.00000000
  -V(xc)+E(xc)   XCENC  =        99.24494915
  PAW double counting   =      6801.54657516    -6615.75432547
  entropy T*S    EENTRO =        -0.00000000
  eigenvalues    EBANDS =      -502.05526317
  atomic energy  EATOM  =      5007.09061442
  Solvation  Ediel_sol  =         0.00000000
  ---------------------------------------------------
  free energy    TOTEN  =      -102.56149975 eV

  energy without entropy =     -102.56149975  energy(sigma->0) =     -102.56149975


--------------------------------------------------------------------------------------------------------




--------------------------------------- Iteration      1(  16)  ---------------------------------------


    POTLOK:  cpu time      0.0250: real time      0.0251
    SETDIJ:  cpu time      0.0054: real time      0.0054
     EDDAV:  cpu time      2.3792: real time      2.3849
       DOS:  cpu time      0.0011: real time      0.0011
    CHARGE:  cpu time      0.0764: real time      0.0766
    MIXING:  cpu time      0.0010: real time      0.0010
    --------------------------------------------
      LOOP:  cpu time      2.4881: real time      2.4940

 eigenvalue-minimisations  :  8568
 total energy-change (2. order) : 0.5505800E-01  (-0.1720516E-01)
 number of electron      79.9999978 magnetization      -0.0010605
 augmentation part       12.5405504 magnetization       0.0139927

 Broyden mixing:
  rms(total) = 0.39085E-01    rms(broyden)= 0.39078E-01
  rms(prec ) = 0.46297E-01
  weight for this iteration     100.00

 eigenvalues of (default mixing * dielectric matrix)
  average eigenvalue GAMMA=   1.1613
  2.8060  1.8221  1.8221  1.2632  0.9137  0.9137  0.9016  0.3962  0.7044  0.6158
  0.6158

 Free energy of the ion-electron system (eV)
  ---------------------------------------------------
  alpha Z        PSCENC =       208.84953610
  Ewald energy   TEWEN  =     -3400.34808675
  -Hartree energ DENC   =     -1707.27148135
  -exchange      EXHF   =         0.00000000
  -V(xc)+E(xc)   XCENC  =        99.49000438
  PAW double counting   =      6869.51794505    -6684.39375769
  entropy T*S    EENTRO =        -0.00000000
  eigenvalues    EBANDS =      -495.44121591
  atomic energy  EATOM  =      5007.09061442
  Solvation  Ediel_sol  =         0.00000000
  ---------------------------------------------------
  free energy    TOTEN  =      -102.50644174 eV

  energy without entropy =     -102.50644174  energy(sigma->0) =     -102.50644174


--------------------------------------------------------------------------------------------------------




--------------------------------------- Iteration      1(  17)  ---------------------------------------


    POTLOK:  cpu time      0.0255: real time      0.0255
    SETDIJ:  cpu time      0.0056: real time      0.0056
     EDDAV:  cpu time      2.3306: real time      2.3365
       DOS:  cpu time      0.0011: real time      0.0012
    CHARGE:  cpu time      0.0771: real time      0.0772
    MIXING:  cpu time      0.0010: real time      0.0010
    --------------------------------------------
      LOOP:  cpu time      2.4410: real time      2.4470

 eigenvalue-minimisations  :  8464
 total energy-change (2. order) :-0.2592590E-03  (-0.9941819E-03)
 number of electron      79.9999978 magnetization       0.0094095
 augmentation part       12.5290582 magnetization       0.0160535

 Broyden mixing:
  rms(total) = 0.25142E-01    rms(broyden)= 0.25140E-01
  rms(prec ) = 0.31145E-01
  weight for this iteration     100.00

 eigenvalues of (default mixing * dielectric matrix)
  average eigenvalue GAMMA=   1.1642
  2.7501  1.8948  1.8948  1.3880  0.9321  0.9321  1.1477  0.3962  0.6884  0.6884
  0.6287  0.6287

 Free energy of the ion-electron system (eV)
  ---------------------------------------------------
  alpha Z        PSCENC =       208.84953610
  Ewald energy   TEWEN  =     -3400.34808675
  -Hartree energ DENC   =     -1707.67113720
  -exchange      EXHF   =         0.00000000
  -V(xc)+E(xc)   XCENC  =        99.50434259
  PAW double counting   =      6875.47834592    -6690.42292206
  entropy T*S    EENTRO =        -0.00000000
  eigenvalues    EBANDS =      -494.98739402
  atomic energy  EATOM  =      5007.09061442
  Solvation  Ediel_sol  =         0.00000000
  ---------------------------------------------------
  free energy    TOTEN  =      -102.50670100 eV

  energy without entropy =     -102.50670100  energy(sigma->0) =     -102.50670100


--------------------------------------------------------------------------------------------------------




--------------------------------------- Iteration      1(  18)  ---------------------------------------


    POTLOK:  cpu time      0.0249: real time      0.0249
    SETDIJ:  cpu time      0.0056: real time      0.0056
     EDDAV:  cpu time      2.4828: real time      2.4882
       DOS:  cpu time      0.0011: real time      0.0011
    CHARGE:  cpu time      0.0787: real time      0.0789
    MIXING:  cpu time      0.0010: real time      0.0010
    --------------------------------------------
      LOOP:  cpu time      2.5940: real time      2.5996

 eigenvalue-minimisations  :  9096
 total energy-change (2. order) :-0.6369214E-03  (-0.5836147E-03)
 number of electron      79.9999978 magnetization       0.0053603
 augmentation part       12.4770028 magnetization       0.0065272

 Broyden mixing:
  rms(total) = 0.26728E-01    rms(broyden)= 0.26725E-01
  rms(prec ) = 0.35995E-01
  weight for this iteration     100.00

 eigenvalues of (default mixing * dielectric matrix)
  average eigenvalue GAMMA=   1.1884
  2.6694  1.8935  1.8935  2.0548  1.0114  1.0114  0.9233  0.9233  0.3962  0.8161
  0.6213  0.6213  0.6143

 Free energy of the ion-electron system (eV)
  ---------------------------------------------------
  alpha Z        PSCENC =       208.84953610
  Ewald energy   TEWEN  =     -3400.34808675
  -Hartree energ DENC   =     -1707.76098655
  -exchange      EXHF   =         0.00000000
  -V(xc)+E(xc)   XCENC  =        99.47481540
  PAW double counting   =      6881.99956313    -6697.02829932
  entropy T*S    EENTRO =        -0.00000000
  eigenvalues    EBANDS =      -494.78449435
  atomic energy  EATOM  =      5007.09061442
  Solvation  Ediel_sol  =         0.00000000
  ---------------------------------------------------
  free energy    TOTEN  =      -102.50733792 eV

  energy without entropy =     -102.50733792  energy(sigma->0) =     -102.50733792


--------------------------------------------------------------------------------------------------------




--------------------------------------- Iteration      1(  19)  ---------------------------------------


    POTLOK:  cpu time      0.0253: real time      0.0253
    SETDIJ:  cpu time      0.0057: real time      0.0057
     EDDAV:  cpu time      2.4503: real time      2.4557
       DOS:  cpu time      0.0010: real time      0.0010
    CHARGE:  cpu time      0.0771: real time      0.0773
    MIXING:  cpu time      0.0011: real time      0.0011
    --------------------------------------------
      LOOP:  cpu time      2.5606: real time      2.5662

 eigenvalue-minimisations  :  8792
 total energy-change (2. order) : 0.1151225E-02  (-0.2007226E-03)
 number of electron      79.9999978 magnetization       0.0013577
 augmentation part       12.5048708 magnetization       0.0015540

 Broyden mixing:
  rms(total) = 0.75136E-02    rms(broyden)= 0.75127E-02
  rms(prec ) = 0.92029E-02
  weight for this iteration     100.00

 eigenvalues of (default mixing * dielectric matrix)
  average eigenvalue GAMMA=   1.1813
  2.7478  2.3384  1.8828  1.8828  1.1847  0.9542  0.9542  0.3962  0.8087  0.8087
  0.7299  0.6294  0.6294  0.5907

 Free energy of the ion-electron system (eV)
  ---------------------------------------------------
  alpha Z        PSCENC =       208.84953610
  Ewald energy   TEWEN  =     -3400.34808675
  -Hartree energ DENC   =     -1707.47733324
  -exchange      EXHF   =         0.00000000
  -V(xc)+E(xc)   XCENC  =        99.47645372
  PAW double counting   =      6874.46210066    -6689.43743438
  entropy T*S    EENTRO =        -0.00000000
  eigenvalues    EBANDS =      -495.12203722
  atomic energy  EATOM  =      5007.09061442
  Solvation  Ediel_sol  =         0.00000000
  ---------------------------------------------------
  free energy    TOTEN  =      -102.50618670 eV

  energy without entropy =     -102.50618670  energy(sigma->0) =     -102.50618670


--------------------------------------------------------------------------------------------------------




--------------------------------------- Iteration      1(  20)  ---------------------------------------


    POTLOK:  cpu time      0.0253: real time      0.0253
    SETDIJ:  cpu time      0.0061: real time      0.0061
     EDDAV:  cpu time      2.3188: real time      2.3233
       DOS:  cpu time      0.0011: real time      0.0011
    CHARGE:  cpu time      0.0784: real time      0.0785
    MIXING:  cpu time      0.0011: real time      0.0012
    --------------------------------------------
      LOOP:  cpu time      2.4307: real time      2.4354

 eigenvalue-minimisations  :  8368
 total energy-change (2. order) : 0.6951965E-04  (-0.3608754E-04)
 number of electron      79.9999978 magnetization      -0.0019917
 augmentation part       12.5095912 magnetization      -0.0028452

 Broyden mixing:
  rms(total) = 0.39037E-02    rms(broyden)= 0.39034E-02
  rms(prec ) = 0.47074E-02
  weight for this iteration     100.00

 eigenvalues of (default mixing * dielectric matrix)
  average eigenvalue GAMMA=   1.1851
  2.9327  2.2588  1.9010  1.9010  1.2681  0.9661  0.9661  1.0425  0.7963  0.7963
  0.3962  0.7103  0.6228  0.6228  0.5947

 Free energy of the ion-electron system (eV)
  ---------------------------------------------------
  alpha Z        PSCENC =       208.84953610
  Ewald energy   TEWEN  =     -3400.34808675
  -Hartree energ DENC   =     -1707.20375230
  -exchange      EXHF   =         0.00000000
  -V(xc)+E(xc)   XCENC  =        99.46423630
  PAW double counting   =      6872.33955815    -6687.29050938
  entropy T*S    EENTRO =        -0.00000000
  eigenvalues    EBANDS =      -495.40771371
  atomic energy  EATOM  =      5007.09061442
  Solvation  Ediel_sol  =         0.00000000
  ---------------------------------------------------
  free energy    TOTEN  =      -102.50611718 eV

  energy without entropy =     -102.50611718  energy(sigma->0) =     -102.50611718


--------------------------------------------------------------------------------------------------------




--------------------------------------- Iteration      1(  21)  ---------------------------------------


    POTLOK:  cpu time      0.0249: real time      0.0250
    SETDIJ:  cpu time      0.0054: real time      0.0054
     EDDAV:  cpu time      2.5589: real time      2.5649
       DOS:  cpu time      0.0011: real time      0.0011
    CHARGE:  cpu time      0.0777: real time      0.0779
    MIXING:  cpu time      0.0012: real time      0.0012
    --------------------------------------------
      LOOP:  cpu time      2.6693: real time      2.6754

 eigenvalue-minimisations  :  9424
 total energy-change (2. order) : 0.8015600E-05  (-0.7724909E-05)
 number of electron      79.9999978 magnetization      -0.0016701
 augmentation part       12.5137686 magnetization      -0.0017877

 Broyden mixing:
  rms(total) = 0.15861E-02    rms(broyden)= 0.15858E-02
  rms(prec ) = 0.19551E-02
  weight for this iteration     100.00

 eigenvalues of (default mixing * dielectric matrix)
  average eigenvalue GAMMA=   1.1649
  2.9956  1.8876  1.8876  1.8853  1.8853  0.9475  0.9475  0.9513  0.8421  0.8421
  0.3962  0.6323  0.6323  0.6466  0.6466  0.6123

 Free energy of the ion-electron system (eV)
  ---------------------------------------------------
  alpha Z        PSCENC =       208.84953610
  Ewald energy   TEWEN  =     -3400.34808675
  -Hartree energ DENC   =     -1707.19242840
  -exchange      EXHF   =         0.00000000
  -V(xc)+E(xc)   XCENC  =        99.46674473
  PAW double counting   =      6871.50864621    -6686.45144466
  entropy T*S    EENTRO =        -0.00000000
  eigenvalues    EBANDS =      -495.42969081
  atomic energy  EATOM  =      5007.09061442
  Solvation  Ediel_sol  =         0.00000000
  ---------------------------------------------------
  free energy    TOTEN  =      -102.50610916 eV

  energy without entropy =     -102.50610916  energy(sigma->0) =     -102.50610916


--------------------------------------------------------------------------------------------------------




--------------------------------------- Iteration      1(  22)  ---------------------------------------


    POTLOK:  cpu time      0.0250: real time      0.0251
    SETDIJ:  cpu time      0.0057: real time      0.0057
     EDDAV:  cpu time      2.3842: real time      2.3895
       DOS:  cpu time      0.0011: real time      0.0011
    CHARGE:  cpu time      0.0776: real time      0.0778
    MIXING:  cpu time      0.0011: real time      0.0011
    --------------------------------------------
      LOOP:  cpu time      2.4947: real time      2.5003

 eigenvalue-minimisations  :  8496
 total energy-change (2. order) : 0.3374826E-06  (-0.3221297E-05)
 number of electron      79.9999978 magnetization      -0.0007661
 augmentation part       12.5115270 magnetization      -0.0007081

 Broyden mixing:
  rms(total) = 0.51669E-03    rms(broyden)= 0.51657E-03
  rms(prec ) = 0.63837E-03
  weight for this iteration     100.00

 eigenvalues of (default mixing * dielectric matrix)
  average eigenvalue GAMMA=   1.1927
  3.0312  1.8927  1.8927  2.0737  2.0737  1.2021  0.9547  0.9547  0.8146  0.8146
  0.3962  0.8216  0.8216  0.6177  0.6177  0.6954  0.6003

 Free energy of the ion-electron system (eV)
  ---------------------------------------------------
  alpha Z        PSCENC =       208.84953610
  Ewald energy   TEWEN  =     -3400.34808675
  -Hartree energ DENC   =     -1707.24638510
  -exchange      EXHF   =         0.00000000
  -V(xc)+E(xc)   XCENC  =        99.46854939
  PAW double counting   =      6872.14611669    -6687.09523716
  entropy T*S    EENTRO =        -0.00000000
  eigenvalues    EBANDS =      -495.37121640
  atomic energy  EATOM  =      5007.09061442
  Solvation  Ediel_sol  =         0.00000000
  ---------------------------------------------------
  free energy    TOTEN  =      -102.50610883 eV

  energy without entropy =     -102.50610883  energy(sigma->0) =     -102.50610883


--------------------------------------------------------------------------------------------------------




--------------------------------------- Iteration      1(  23)  ---------------------------------------


    POTLOK:  cpu time      0.0259: real time      0.0260
    SETDIJ:  cpu time      0.0058: real time      0.0058
     EDDAV:  cpu time      2.4578: real time      2.4628
       DOS:  cpu time      0.0011: real time      0.0011
    CHARGE:  cpu time      0.0783: real time      0.0784
    MIXING:  cpu time      0.0012: real time      0.0012
    --------------------------------------------
      LOOP:  cpu time      2.5702: real time      2.5753

 eigenvalue-minimisations  :  8968
 total energy-change (2. order) : 0.1723929E-06  (-0.6844279E-06)
 number of electron      79.9999978 magnetization      -0.0000257
 augmentation part       12.5127245 magnetization       0.0000655

 Broyden mixing:
  rms(total) = 0.74224E-03    rms(broyden)= 0.74217E-03
  rms(prec ) = 0.97277E-03
  weight for this iteration     100.00

 eigenvalues of (default mixing * dielectric matrix)
  average eigenvalue GAMMA=   1.1935
  2.9908  2.5713  1.8935  1.8935  1.8120  1.3545  0.9413  0.9413  0.3962  0.8694
  0.8694  0.7931  0.7931  0.8560  0.6158  0.6158  0.6669  0.6089

 Free energy of the ion-electron system (eV)
  ---------------------------------------------------
  alpha Z        PSCENC =       208.84953610
  Ewald energy   TEWEN  =     -3400.34808675
  -Hartree energ DENC   =     -1707.20970694
  -exchange      EXHF   =         0.00000000
  -V(xc)+E(xc)   XCENC  =        99.46701276
  PAW double counting   =      6871.78241752    -6686.72786233
  entropy T*S    EENTRO =        -0.00000000
  eigenvalues    EBANDS =      -495.41003343
  atomic energy  EATOM  =      5007.09061442
  Solvation  Ediel_sol  =         0.00000000
  ---------------------------------------------------
  free energy    TOTEN  =      -102.50610865 eV

  energy without entropy =     -102.50610865  energy(sigma->0) =     -102.50610865


--------------------------------------------------------------------------------------------------------




--------------------------------------- Iteration      1(  24)  ---------------------------------------


    POTLOK:  cpu time      0.0248: real time      0.0249
    SETDIJ:  cpu time      0.0056: real time      0.0057
     EDDAV:  cpu time      2.4486: real time      2.4536
       DOS:  cpu time      0.0011: real time      0.0011
    CHARGE:  cpu time      0.0799: real time      0.0800
    MIXING:  cpu time      0.0012: real time      0.0012
    --------------------------------------------
      LOOP:  cpu time      2.5612: real time      2.5664

 eigenvalue-minimisations  :  8872
 total energy-change (2. order) : 0.8196903E-06  (-0.2190033E-06)
 number of electron      79.9999978 magnetization      -0.0000218
 augmentation part       12.5118067 magnetization      -0.0000216

 Broyden mixing:
  rms(total) = 0.20968E-03    rms(broyden)= 0.20960E-03
  rms(prec ) = 0.27147E-03
  weight for this iteration     100.00

 eigenvalues of (default mixing * dielectric matrix)
  average eigenvalue GAMMA=   1.1919
  3.0158  2.6397  1.8924  1.8924  1.7966  1.5338  0.9360  0.9360  0.9833  0.9833
  0.3962  0.7755  0.7755  0.8061  0.8061  0.6171  0.6171  0.6212  0.6212

 Free energy of the ion-electron system (eV)
  ---------------------------------------------------
  alpha Z        PSCENC =       208.84953610
  Ewald energy   TEWEN  =     -3400.34808675
  -Hartree energ DENC   =     -1707.20966203
  -exchange      EXHF   =         0.00000000
  -V(xc)+E(xc)   XCENC  =        99.46641478
  PAW double counting   =      6871.89677588    -6686.84365794
  entropy T*S    EENTRO =        -0.00000000
  eigenvalues    EBANDS =      -495.40804228
  atomic energy  EATOM  =      5007.09061442
  Solvation  Ediel_sol  =         0.00000000
  ---------------------------------------------------
  free energy    TOTEN  =      -102.50610783 eV

  energy without entropy =     -102.50610783  energy(sigma->0) =     -102.50610783


--------------------------------------------------------------------------------------------------------




--------------------------------------- Iteration      1(  25)  ---------------------------------------


    POTLOK:  cpu time      0.0248: real time      0.0249
    SETDIJ:  cpu time      0.0057: real time      0.0057
     EDDAV:  cpu time      2.3689: real time      2.3743
       DOS:  cpu time      0.0011: real time      0.0011
    CHARGE:  cpu time      0.0792: real time      0.0793
    MIXING:  cpu time      0.0012: real time      0.0012
    --------------------------------------------
      LOOP:  cpu time      2.4809: real time      2.4865

 eigenvalue-minimisations  :  8592
 total energy-change (2. order) : 0.7978906E-07  (-0.6807346E-07)
 number of electron      79.9999978 magnetization       0.0000106
 augmentation part       12.5121115 magnetization       0.0000023

 Broyden mixing:
  rms(total) = 0.57575E-04    rms(broyden)= 0.57543E-04
  rms(prec ) = 0.66727E-04
  weight for this iteration     100.00

 eigenvalues of (default mixing * dielectric matrix)
  average eigenvalue GAMMA=   1.2016
  3.0631  2.6542  1.8922  1.8922  2.1177  1.5591  0.9330  0.9330  1.0909  0.9789
  0.9789  0.3962  0.7697  0.7697  0.8215  0.7165  0.6191  0.6191  0.6133  0.6133

 Free energy of the ion-electron system (eV)
  ---------------------------------------------------
  alpha Z        PSCENC =       208.84953610
  Ewald energy   TEWEN  =     -3400.34808675
  -Hartree energ DENC   =     -1707.20280587
  -exchange      EXHF   =         0.00000000
  -V(xc)+E(xc)   XCENC  =        99.46622521
  PAW double counting   =      6871.84591848    -6686.79200793
  entropy T*S    EENTRO =        -0.00000000
  eigenvalues    EBANDS =      -495.41550141
  atomic energy  EATOM  =      5007.09061442
  Solvation  Ediel_sol  =         0.00000000
  ---------------------------------------------------
  free energy    TOTEN  =      -102.50610775 eV

  energy without entropy =     -102.50610775  energy(sigma->0) =     -102.50610775


--------------------------------------------------------------------------------------------------------




--------------------------------------- Iteration      1(  26)  ---------------------------------------


    POTLOK:  cpu time      0.0251: real time      0.0251
    SETDIJ:  cpu time      0.0063: real time      0.0063
     EDDAV:  cpu time      1.7956: real time      1.7995
       DOS:  cpu time      0.0011: real time      0.0011
    CHARGE:  cpu time      0.0775: real time      0.0777
    MIXING:  cpu time      0.0015: real time      0.0015
    --------------------------------------------
      LOOP:  cpu time      1.9071: real time      1.9112

 eigenvalue-minimisations  :  5808
 total energy-change (2. order) :-0.5300262E-07  (-0.3781240E-08)
 number of electron      79.9999978 magnetization       0.0000070
 augmentation part       12.5121003 magnetization       0.0000058

 Broyden mixing:
  rms(total) = 0.39274E-04    rms(broyden)= 0.39272E-04
  rms(prec ) = 0.45170E-04
  weight for this iteration     100.00

 eigenvalues of (default mixing * dielectric matrix)
  average eigenvalue GAMMA=   1.2241
  3.2146  2.7226  2.4132  1.8929  1.8929  1.6307  1.2752  1.0296  1.0296  0.9292
  0.9292  0.3962  0.7727  0.7727  0.8352  0.8352  0.6888  0.6190  0.6190  0.6034
  0.6034

 Free energy of the ion-electron system (eV)
  ---------------------------------------------------
  alpha Z        PSCENC =       208.84953610
  Ewald energy   TEWEN  =     -3400.34808675
  -Hartree energ DENC   =     -1707.20233183
  -exchange      EXHF   =         0.00000000
  -V(xc)+E(xc)   XCENC  =        99.46620831
  PAW double counting   =      6871.87119962    -6686.81731401
  entropy T*S    EENTRO =        -0.00000000
  eigenvalues    EBANDS =      -495.41593367
  atomic energy  EATOM  =      5007.09061442
  Solvation  Ediel_sol  =         0.00000000
  ---------------------------------------------------
  free energy    TOTEN  =      -102.50610781 eV

  energy without entropy =     -102.50610781  energy(sigma->0) =     -102.50610781


--------------------------------------------------------------------------------------------------------




--------------------------------------- Iteration      1(  27)  ---------------------------------------


    POTLOK:  cpu time      0.0297: real time      0.0298
    SETDIJ:  cpu time      0.0064: real time      0.0064
     EDDAV:  cpu time      1.4281: real time      1.4314
       DOS:  cpu time      0.0011: real time      0.0011
    CHARGE:  cpu time      0.0768: real time      0.0769
    MIXING:  cpu time      0.0013: real time      0.0013
    --------------------------------------------
      LOOP:  cpu time      1.5435: real time      1.5471

 eigenvalue-minimisations  :  3944
 total energy-change (2. order) :-0.3239620E-07  (-0.8047094E-09)
 number of electron      79.9999978 magnetization       0.0000011
 augmentation part       12.5120725 magnetization       0.0000027

 Broyden mixing:
  rms(total) = 0.24315E-04    rms(broyden)= 0.24314E-04
  rms(prec ) = 0.26768E-04
  weight for this iteration     100.00

 eigenvalues of (default mixing * dielectric matrix)
  average eigenvalue GAMMA=   1.2139
  3.2358  2.7210  2.4242  1.8933  1.8933  1.7437  0.9326  0.9326  1.0558  1.0558
  1.0912  0.9870  0.9870  0.3962  0.7748  0.7748  0.6170  0.6170  0.6578  0.6578
  0.6002  0.6571

 Free energy of the ion-electron system (eV)
  ---------------------------------------------------
  alpha Z        PSCENC =       208.84953610
  Ewald energy   TEWEN  =     -3400.34808675
  -Hartree energ DENC   =     -1707.20314896
  -exchange      EXHF   =         0.00000000
  -V(xc)+E(xc)   XCENC  =        99.46624410
  PAW double counting   =      6871.89038442    -6686.83660753
  entropy T*S    EENTRO =        -0.00000000
  eigenvalues    EBANDS =      -495.41504363
  atomic energy  EATOM  =      5007.09061442
  Solvation  Ediel_sol  =         0.00000000
  ---------------------------------------------------
  free energy    TOTEN  =      -102.50610784 eV

  energy without entropy =     -102.50610784  energy(sigma->0) =     -102.50610784


--------------------------------------------------------------------------------------------------------




--------------------------------------- Iteration      1(  28)  ---------------------------------------


    POTLOK:  cpu time      0.0250: real time      0.0250
    SETDIJ:  cpu time      0.0062: real time      0.0062
     EDDAV:  cpu time      1.3738: real time      1.3768
       DOS:  cpu time      0.0011: real time      0.0011
    --------------------------------------------
      LOOP:  cpu time      1.4061: real time      1.4091

 eigenvalue-minimisations  :  3752
 total energy-change (2. order) :-0.3676178E-08  (-0.4943500E-09)
 number of electron      79.9999978 magnetization       0.0000011
 augmentation part       12.5120725 magnetization       0.0000027

 Free energy of the ion-electron system (eV)
  ---------------------------------------------------
  alpha Z        PSCENC =       208.84953610
  Ewald energy   TEWEN  =     -3400.34808675
  -Hartree energ DENC   =     -1707.20324690
  -exchange      EXHF   =         0.00000000
  -V(xc)+E(xc)   XCENC  =        99.46625439
  PAW double counting   =      6871.89097679    -6686.83718820
  entropy T*S    EENTRO =        -0.00000000
  eigenvalues    EBANDS =      -495.41496769
  atomic energy  EATOM  =      5007.09061442
  Solvation  Ediel_sol  =         0.00000000
  ---------------------------------------------------
  free energy    TOTEN  =      -102.50610784 eV

  energy without entropy =     -102.50610784  energy(sigma->0) =     -102.50610784


--------------------------------------------------------------------------------------------------------




 average (electrostatic) potential at core
  the test charge radii are     1.2064  0.7215
  (the norm of the test charge is              1.0000)
       1 -46.5086       2 -46.5086       3 -46.5086       4 -46.5086       5 -74.4569
       6 -74.4569       7 -74.4569       8 -74.4569       9 -74.2331      10 -74.2331
      11 -74.2331      12 -74.2331      13 -74.1992      14 -74.1992
 
 
 
 E-fermi :  -0.0778     XC(G=0):  -9.5137     alpha+bet : -8.5410

 Fermi energy:        -0.0777881322

 spin component 1

 k-point     1 :       0.0000    0.0000    0.0000
  band No.  band energies     occupation 
      1     -17.9311      1.00000
      2     -17.8051      1.00000
      3     -16.8939      1.00000
      4     -16.7514      1.00000
      5     -16.6460      1.00000
      6     -16.6267      1.00000
      7     -16.4693      1.00000
      8     -16.4382      1.00000
      9     -16.3133      1.00000
     10     -16.2801      1.00000
     11      -4.6844      1.00000
     12      -4.5553      1.00000
     13      -4.5503      1.00000
     14      -4.5161      1.00000
     15      -4.4467      1.00000
     16      -3.8459      1.00000
     17      -3.3113      1.00000
     18      -3.1660      1.00000
     19      -3.0240      1.00000
     20      -2.9254      1.00000
     21      -2.6638      1.00000
     22      -2.5804      1.00000
     23      -2.5605      1.00000
     24      -2.5188      1.00000
     25      -2.4934      1.00000
     26      -2.4311      1.00000
     27      -2.2556      1.00000
     28      -2.0708      1.00000
     29      -2.0256      1.00000
     30      -1.9814      1.00000
     31      -1.9736      1.00000
     32      -1.8446      1.00000
     33      -1.8138      1.00000
     34      -1.3807      1.00000
     35      -1.3628      1.00000
     36      -1.3427      1.00000
     37      -1.2696      1.00000
     38      -1.0777      1.00000
     39      -1.0012      1.00000
     40      -0.9397      1.00000
     41       1.7506      0.00000
     42       1.8013      0.00000
     43       2.7358      0.00000
     44       2.7858      0.00000
     45       3.0100      0.00000
     46       3.0217      0.00000
     47       3.0370      0.00000
     48       3.2917      0.00000
     49       3.5992      0.00000
     50       3.8381      0.00000
     51       3.8786      0.00000
     52       3.9029      0.00000
     53       4.0438      0.00000
     54       4.1758      0.00000
     55       4.2258      0.00000
     56       4.2971      0.00000

 k-point     2 :       0.1429    0.0000    0.0000
  band No.  band energies     occupation 
      1     -17.8172      1.00000
      2     -17.6886      1.00000
      3     -16.8494      1.00000
      4     -16.7069      1.00000
      5     -16.6460      1.00000
      6     -16.6161      1.00000
      7     -16.4560      1.00000
      8     -16.4254      1.00000
      9     -16.3278      1.00000
     10     -16.2847      1.00000
     11      -4.8963      1.00000
     12      -4.8419      1.00000
     13      -4.6349      1.00000
     14      -4.3873      1.00000
     15      -4.3806      1.00000
     16      -3.7702      1.00000
     17      -3.1474      1.00000
     18      -3.1346      1.00000
     19      -3.0690      1.00000
     20      -2.9901      1.00000
     21      -2.9889      1.00000
     22      -2.9487      1.00000
     23      -2.6250      1.00000
     24      -2.4997      1.00000
     25      -2.3963      1.00000
     26      -2.3154      1.00000
     27      -2.2918      1.00000
     28      -2.2321      1.00000
     29      -2.1465      1.00000
     30      -2.1091      1.00000
     31      -2.0653      1.00000
     32      -1.8174      1.00000
     33      -1.6720      1.00000
     34      -1.5759      1.00000
     35      -1.4881      1.00000
     36      -1.1079      1.00000
     37      -1.0882      1.00000
     38      -0.9662      1.00000
     39      -0.9653      1.00000
     40      -0.8454      1.00000
     41       1.8332      0.00000
     42       1.9474      0.00000
     43       2.6788      0.00000
     44       2.7643      0.00000
     45       2.9414      0.00000
     46       3.0676      0.00000
     47       3.0966      0.00000
     48       3.1450      0.00000
     49       3.3046      0.00000
     50       3.4227      0.00000
     51       3.4235      0.00000
     52       3.4660      0.00000
     53       3.8724      0.00000
     54       4.1536      0.00000
     55       4.4004      0.00000
     56       4.5221      0.00000

 k-point     3 :       0.2857    0.0000    0.0000
  band No.  band energies     occupation 
      1     -17.5199      1.00000
      2     -17.3830      1.00000
      3     -16.7846      1.00000
      4     -16.6433      1.00000
      5     -16.6351      1.00000
      6     -16.5934      1.00000
      7     -16.4250      1.00000
      8     -16.3930      1.00000
      9     -16.3717      1.00000
     10     -16.3005      1.00000
     11      -5.1740      1.00000
     12      -5.1667      1.00000
     13      -4.5260      1.00000
     14      -4.3480      1.00000
     15      -4.2690      1.00000
     16      -3.7502      1.00000
     17      -3.7192      1.00000
     18      -3.5106      1.00000
     19      -3.1942      1.00000
     20      -3.0546      1.00000
     21      -3.0237      1.00000
     22      -3.0190      1.00000
     23      -2.6119      1.00000
     24      -2.5361      1.00000
     25      -2.4939      1.00000
     26      -2.4131      1.00000
     27      -2.3669      1.00000
     28      -2.3567      1.00000
     29      -2.2259      1.00000
     30      -2.2210      1.00000
     31      -2.1519      1.00000
     32      -1.9788      1.00000
     33      -1.8665      1.00000
     34      -1.6231      1.00000
     35      -1.3585      1.00000
     36      -1.1805      1.00000
     37      -1.0192      1.00000
     38      -0.9736      1.00000
     39      -0.7546      1.00000
     40      -0.7085      1.00000
     41       1.9784      0.00000
     42       2.1889      0.00000
     43       2.5663      0.00000
     44       2.6600      0.00000
     45       2.6830      0.00000
     46       2.7970      0.00000
     47       3.0078      0.00000
     48       3.0638      0.00000
     49       3.1711      0.00000
     50       3.2850      0.00000
     51       3.5183      0.00000
     52       3.5577      0.00000
     53       3.6247      0.00000
     54       4.1842      0.00000
     55       4.2807      0.00000
     56       4.3504      0.00000

 k-point     4 :       0.4286    0.0000    0.0000
  band No.  band energies     occupation 
      1     -17.1591      1.00000
      2     -17.0077      1.00000
      3     -16.8807      1.00000
      4     -16.7148      1.00000
      5     -16.6028      1.00000
      6     -16.5812      1.00000
      7     -16.3993      1.00000
      8     -16.3959      1.00000
      9     -16.3559      1.00000
     10     -16.3254      1.00000
     11      -5.1078      1.00000
     12      -5.0497      1.00000
     13      -4.6460      1.00000
     14      -4.5233      1.00000
     15      -4.3824      1.00000
     16      -4.3598      1.00000
     17      -3.8060      1.00000
     18      -3.4885      1.00000
     19      -3.1221      1.00000
     20      -3.0617      1.00000
     21      -3.0285      1.00000
     22      -2.9440      1.00000
     23      -2.8113      1.00000
     24      -2.7892      1.00000
     25      -2.7305      1.00000
     26      -2.5223      1.00000
     27      -2.4886      1.00000
     28      -2.4794      1.00000
     29      -2.3010      1.00000
     30      -2.2053      1.00000
     31      -2.1258      1.00000
     32      -2.0133      1.00000
     33      -1.9499      1.00000
     34      -1.6982      1.00000
     35      -1.2859      1.00000
     36      -1.1399      1.00000
     37      -1.1266      1.00000
     38      -0.9335      1.00000
     39      -0.8477      1.00000
     40      -0.8304      1.00000
     41       2.0767      0.00000
     42       2.1923      0.00000
     43       2.5788      0.00000
     44       2.6444      0.00000
     45       2.8128      0.00000
     46       3.0047      0.00000
     47       3.0236      0.00000
     48       3.0467      0.00000
     49       3.2151      0.00000
     50       3.2755      0.00000
     51       3.6291      0.00000
     52       3.6811      0.00000
     53       3.7858      0.00000
     54       3.9032      0.00000
     55       4.1484      0.00000
     56       4.1523      0.00000

 k-point     5 :       0.0000    0.3333    0.0000
  band No.  band energies     occupation 
      1     -17.9029      1.00000
      2     -17.8403      1.00000
      3     -16.8523      1.00000
      4     -16.7810      1.00000
      5     -16.6414      1.00000
      6     -16.6316      1.00000
      7     -16.4677      1.00000
      8     -16.4544      1.00000
      9     -16.2995      1.00000
     10     -16.2843      1.00000
     11      -4.6749      1.00000
     12      -4.6218      1.00000
     13      -4.5541      1.00000
     14      -4.5516      1.00000
     15      -4.2584      1.00000
     16      -4.0020      1.00000
     17      -3.1859      1.00000
     18      -3.0811      1.00000
     19      -3.0588      1.00000
     20      -2.9260      1.00000
     21      -2.7671      1.00000
     22      -2.6867      1.00000
     23      -2.5452      1.00000
     24      -2.5118      1.00000
     25      -2.4677      1.00000
     26      -2.4337      1.00000
     27      -2.1660      1.00000
     28      -2.0581      1.00000
     29      -2.0358      1.00000
     30      -2.0058      1.00000
     31      -1.9790      1.00000
     32      -1.9751      1.00000
     33      -1.6644      1.00000
     34      -1.4970      1.00000
     35      -1.3578      1.00000
     36      -1.3478      1.00000
     37      -1.1679      1.00000
     38      -1.0256      1.00000
     39      -1.0238      1.00000
     40      -0.9769      1.00000
     41       1.7626      0.00000
     42       1.7880      0.00000
     43       2.8150      0.00000
     44       2.8462      0.00000
     45       2.9752      0.00000
     46       3.0135      0.00000
     47       3.0193      0.00000
     48       3.0666      0.00000
     49       3.8369      0.00000
     50       3.8448      0.00000
     51       3.8637      0.00000
     52       3.9558      0.00000
     53       4.0814      0.00000
     54       4.0817      0.00000
     55       4.1463      0.00000
     56       4.1474      0.00000

 k-point     6 :       0.1429    0.3333    0.0000
  band No.  band energies     occupation 
      1     -17.7887      1.00000
      2     -17.7249      1.00000
      3     -16.8058      1.00000
      4     -16.7338      1.00000
      5     -16.6409      1.00000
      6     -16.6263      1.00000
      7     -16.4552      1.00000
      8     -16.4432      1.00000
      9     -16.3093      1.00000
     10     -16.2902      1.00000
     11      -4.8922      1.00000
     12      -4.8665      1.00000
     13      -4.5981      1.00000
     14      -4.5166      1.00000
     15      -4.1719      1.00000
     16      -3.9161      1.00000
     17      -3.0892      1.00000
     18      -3.0737      1.00000
     19      -3.0480      1.00000
     20      -3.0051      1.00000
     21      -2.9989      1.00000
     22      -2.9322      1.00000
     23      -2.6795      1.00000
     24      -2.5805      1.00000
     25      -2.3677      1.00000
     26      -2.3468      1.00000
     27      -2.2912      1.00000
     28      -2.1930      1.00000
     29      -2.1550      1.00000
     30      -2.1149      1.00000
     31      -2.0348      1.00000
     32      -1.8677      1.00000
     33      -1.6184      1.00000
     34      -1.5881      1.00000
     35      -1.4090      1.00000
     36      -1.2391      1.00000
     37      -1.0313      1.00000
     38      -1.0058      1.00000
     39      -0.9195      1.00000
     40      -0.8505      1.00000
     41       1.8675      0.00000
     42       1.9267      0.00000
     43       2.7555      0.00000
     44       2.7876      0.00000
     45       2.9109      0.00000
     46       2.9506      0.00000
     47       3.1046      0.00000
     48       3.2234      0.00000
     49       3.2346      0.00000
     50       3.2813      0.00000
     51       3.4937      0.00000
     52       3.5292      0.00000
     53       3.9647      0.00000
     54       4.2036      0.00000
     55       4.2579      0.00000
     56       4.4929      0.00000

 k-point     7 :       0.2857    0.3333    0.0000
  band No.  band energies     occupation 
      1     -17.4907      1.00000
      2     -17.4235      1.00000
      3     -16.7319      1.00000
      4     -16.6412      1.00000
      5     -16.6400      1.00000
      6     -16.6342      1.00000
      7     -16.4256      1.00000
      8     -16.4182      1.00000
      9     -16.3358      1.00000
     10     -16.3085      1.00000
     11      -5.1781      1.00000
     12      -5.1742      1.00000
     13      -4.5053      1.00000
     14      -4.4432      1.00000
     15      -4.0749      1.00000
     16      -3.8076      1.00000
     17      -3.7289      1.00000
     18      -3.6494      1.00000
     19      -3.1124      1.00000
     20      -3.0420      1.00000
     21      -3.0021      1.00000
     22      -2.9850      1.00000
     23      -2.5867      1.00000
     24      -2.5736      1.00000
     25      -2.5138      1.00000
     26      -2.4527      1.00000
     27      -2.4154      1.00000
     28      -2.3819      1.00000
     29      -2.1736      1.00000
     30      -2.1650      1.00000
     31      -2.0746      1.00000
     32      -1.9577      1.00000
     33      -1.9442      1.00000
     34      -1.7286      1.00000
     35      -1.2263      1.00000
     36      -1.1510      1.00000
     37      -1.0866      1.00000
     38      -0.9880      1.00000
     39      -0.7497      1.00000
     40      -0.7437      1.00000
     41       2.0644      0.00000
     42       2.1729      0.00000
     43       2.5848      0.00000
     44       2.6204      0.00000
     45       2.7644      0.00000
     46       2.8274      0.00000
     47       2.9130      0.00000
     48       2.9651      0.00000
     49       3.1555      0.00000
     50       3.3576      0.00000
     51       3.4379      0.00000
     52       3.5346      0.00000
     53       3.7804      0.00000
     54       4.0677      0.00000
     55       4.3434      0.00000
     56       4.4743      0.00000

 k-point     8 :       0.4286    0.3333    0.0000
  band No.  band energies     occupation 
      1     -17.1332      1.00000
      2     -17.0654      1.00000
      3     -16.8201      1.00000
      4     -16.7451      1.00000
      5     -16.5974      1.00000
      6     -16.5866      1.00000
      7     -16.3998      1.00000
      8     -16.3988      1.00000
      9     -16.3456      1.00000
     10     -16.3309      1.00000
     11      -5.1043      1.00000
     12      -5.0773      1.00000
     13      -4.6102      1.00000
     14      -4.5518      1.00000
     15      -4.3794      1.00000
     16      -4.3687      1.00000
     17      -3.6825      1.00000
     18      -3.4471      1.00000
     19      -3.2440      1.00000
     20      -3.0735      1.00000
     21      -3.0472      1.00000
     22      -3.0367      1.00000
     23      -2.8368      1.00000
     24      -2.8142      1.00000
     25      -2.6200      1.00000
     26      -2.6197      1.00000
     27      -2.4683      1.00000
     28      -2.4257      1.00000
     29      -2.2729      1.00000
     30      -2.2385      1.00000
     31      -1.9707      1.00000
     32      -1.9697      1.00000
     33      -1.9359      1.00000
     34      -1.6225      1.00000
     35      -1.5239      1.00000
     36      -1.2944      1.00000
     37      -1.0206      1.00000
     38      -0.9504      1.00000
     39      -0.8088      1.00000
     40      -0.8041      1.00000
     41       2.1714      0.00000
     42       2.2355      0.00000
     43       2.5787      0.00000
     44       2.6119      0.00000
     45       2.7853      0.00000
     46       2.8705      0.00000
     47       3.0574      0.00000
     48       3.0761      0.00000
     49       3.2140      0.00000
     50       3.3276      0.00000
     51       3.5647      0.00000
     52       3.6942      0.00000
     53       3.8346      0.00000
     54       3.8514      0.00000
     55       4.1440      0.00000
     56       4.1466      0.00000

 k-point     9 :       0.0000    0.0000    0.2000
  band No.  band energies     occupation 
      1     -17.8955      1.00000
      2     -17.7743      1.00000
      3     -16.8517      1.00000
      4     -16.7312      1.00000
      5     -16.6443      1.00000
      6     -16.6109      1.00000
      7     -16.4586      1.00000
      8     -16.4483      1.00000
      9     -16.2900      1.00000
     10     -16.2811      1.00000
     11      -4.7174      1.00000
     12      -4.5763      1.00000
     13      -4.5706      1.00000
     14      -4.5370      1.00000
     15      -4.4630      1.00000
     16      -3.9959      1.00000
     17      -3.9277      1.00000
     18      -3.5912      1.00000
     19      -3.5723      1.00000
     20      -3.3523      1.00000
     21      -2.9856      1.00000
     22      -2.7436      1.00000
     23      -2.6685      1.00000
     24      -2.6071      1.00000
     25      -2.4213      1.00000
     26      -2.2533      1.00000
     27      -2.0571      1.00000
     28      -2.0235      1.00000
     29      -1.9317      1.00000
     30      -1.8744      1.00000
     31      -1.8427      1.00000
     32      -1.7061      1.00000
     33      -1.4809      1.00000
     34      -1.3471      1.00000
     35      -1.3342      1.00000
     36      -1.2180      1.00000
     37      -1.2126      1.00000
     38      -0.9816      1.00000
     39      -0.8451      1.00000
     40      -0.8188      1.00000
     41       1.7810      0.00000
     42       1.8490      0.00000
     43       2.7779      0.00000
     44       2.8645      0.00000
     45       3.0172      0.00000
     46       3.0676      0.00000
     47       3.0990      0.00000
     48       3.4771      0.00000
     49       3.5651      0.00000
     50       3.8588      0.00000
     51       3.8910      0.00000
     52       4.0582      0.00000
     53       4.1349      0.00000
     54       4.1948      0.00000
     55       4.4045      0.00000
     56       4.4213      0.00000

 k-point    10 :       0.1429    0.0000    0.2000
  band No.  band energies     occupation 
      1     -17.7819      1.00000
      2     -17.6585      1.00000
      3     -16.8073      1.00000
      4     -16.6902      1.00000
      5     -16.6445      1.00000
      6     -16.6005      1.00000
      7     -16.4440      1.00000
      8     -16.4343      1.00000
      9     -16.3002      1.00000
     10     -16.2845      1.00000
     11      -4.9194      1.00000
     12      -4.8622      1.00000
     13      -4.6433      1.00000
     14      -4.4105      1.00000
     15      -4.4027      1.00000
     16      -3.8989      1.00000
     17      -3.8656      1.00000
     18      -3.5715      1.00000
     19      -3.5518      1.00000
     20      -3.3508      1.00000
     21      -3.1168      1.00000
     22      -3.0124      1.00000
     23      -2.9348      1.00000
     24      -2.5916      1.00000
     25      -2.4636      1.00000
     26      -2.3967      1.00000
     27      -2.2077      1.00000
     28      -2.0100      1.00000
     29      -1.9721      1.00000
     30      -1.9461      1.00000
     31      -1.8436      1.00000
     32      -1.7210      1.00000
     33      -1.5422      1.00000
     34      -1.5365      1.00000
     35      -1.2054      1.00000
     36      -1.0359      1.00000
     37      -0.9534      1.00000
     38      -0.8803      1.00000
     39      -0.8661      1.00000
     40      -0.7717      1.00000
     41       1.8768      0.00000
     42       1.9634      0.00000
     43       2.7096      0.00000
     44       2.8403      0.00000
     45       3.0056      0.00000
     46       3.1057      0.00000
     47       3.1435      0.00000
     48       3.2815      0.00000
     49       3.3581      0.00000
     50       3.4255      0.00000
     51       3.4812      0.00000
     52       3.5791      0.00000
     53       4.1408      0.00000
     54       4.2483      0.00000
     55       4.6252      0.00000
     56       4.7240      0.00000

 k-point    11 :       0.2857    0.0000    0.2000
  band No.  band energies     occupation 
      1     -17.4859      1.00000
      2     -17.3558      1.00000
      3     -16.7475      1.00000
      4     -16.6374      1.00000
      5     -16.6297      1.00000
      6     -16.5781      1.00000
      7     -16.4088      1.00000
      8     -16.3987      1.00000
      9     -16.3310      1.00000
     10     -16.2980      1.00000
     11      -5.1729      1.00000
     12      -5.1692      1.00000
     13      -4.5443      1.00000
     14      -4.3793      1.00000
     15      -4.2880      1.00000
     16      -3.9222      1.00000
     17      -3.8343      1.00000
     18      -3.6955      1.00000
     19      -3.6616      1.00000
     20      -3.4113      1.00000
     21      -3.3587      1.00000
     22      -3.3045      1.00000
     23      -2.8650      1.00000
     24      -2.8244      1.00000
     25      -2.6783      1.00000
     26      -2.6492      1.00000
     27      -2.4420      1.00000
     28      -2.4307      1.00000
     29      -2.3899      1.00000
     30      -1.9896      1.00000
     31      -1.8952      1.00000
     32      -1.7670      1.00000
     33      -1.5934      1.00000
     34      -1.3962      1.00000
     35      -1.1321      1.00000
     36      -1.0209      1.00000
     37      -0.8609      1.00000
     38      -0.7842      1.00000
     39      -0.6631      1.00000
     40      -0.6415      1.00000
     41       1.9999      0.00000
     42       2.1761      0.00000
     43       2.6286      0.00000
     44       2.7191      0.00000
     45       2.7869      0.00000
     46       3.0014      0.00000
     47       3.0837      0.00000
     48       3.1660      0.00000
     49       3.3400      0.00000
     50       3.3538      0.00000
     51       3.5200      0.00000
     52       3.6066      0.00000
     53       4.0463      0.00000
     54       4.1335      0.00000
     55       4.6030      0.00000
     56       4.6092      0.00000

 k-point    12 :       0.4286    0.0000    0.2000
  band No.  band energies     occupation 
      1     -17.1282      1.00000
      2     -16.9877      1.00000
      3     -16.8528      1.00000
      4     -16.7083      1.00000
      5     -16.5870      1.00000
      6     -16.5657      1.00000
      7     -16.3738      1.00000
      8     -16.3569      1.00000
      9     -16.3556      1.00000
     10     -16.3226      1.00000
     11      -5.0994      1.00000
     12      -5.0329      1.00000
     13      -4.6545      1.00000
     14      -4.5157      1.00000
     15      -4.4296      1.00000
     16      -4.3770      1.00000
     17      -3.8738      1.00000
     18      -3.6221      1.00000
     19      -3.5677      1.00000
     20      -3.4968      1.00000
     21      -3.2790      1.00000
     22      -3.1824      1.00000
     23      -3.1696      1.00000
     24      -3.1059      1.00000
     25      -2.9749      1.00000
     26      -2.8029      1.00000
     27      -2.6465      1.00000
     28      -2.5911      1.00000
     29      -2.5702      1.00000
     30      -2.3095      1.00000
     31      -1.7682      1.00000
     32      -1.7562      1.00000
     33      -1.6077      1.00000
     34      -1.6004      1.00000
     35      -1.0519      1.00000
     36      -0.9151      1.00000
     37      -0.8850      1.00000
     38      -0.7351      1.00000
     39      -0.7152      1.00000
     40      -0.6674      1.00000
     41       2.0900      0.00000
     42       2.1987      0.00000
     43       2.6819      0.00000
     44       2.6955      0.00000
     45       2.9482      0.00000
     46       3.0820      0.00000
     47       3.1127      0.00000
     48       3.1507      0.00000
     49       3.5457      0.00000
     50       3.6629      0.00000
     51       3.6736      0.00000
     52       3.7339      0.00000
     53       3.8429      0.00000
     54       4.1753      0.00000
     55       4.2573      0.00000
     56       4.4149      0.00000

 k-point    13 :       0.0000    0.3333    0.2000
  band No.  band energies     occupation 
      1     -17.8681      1.00000
      2     -17.8079      1.00000
      3     -16.8146      1.00000
      4     -16.7541      1.00000
      5     -16.6377      1.00000
      6     -16.6208      1.00000
      7     -16.4605      1.00000
      8     -16.4566      1.00000
      9     -16.2848      1.00000
     10     -16.2808      1.00000
     11      -4.7001      1.00000
     12      -4.6332      1.00000
     13      -4.5749      1.00000
     14      -4.5720      1.00000
     15      -4.3208      1.00000
     16      -4.1327      1.00000
     17      -3.8123      1.00000
     18      -3.6794      1.00000
     19      -3.4935      1.00000
     20      -3.3637      1.00000
     21      -2.9631      1.00000
     22      -2.7958      1.00000
     23      -2.7266      1.00000
     24      -2.6893      1.00000
     25      -2.2114      1.00000
     26      -2.1865      1.00000
     27      -2.0605      1.00000
     28      -2.0271      1.00000
     29      -1.9668      1.00000
     30      -1.8614      1.00000
     31      -1.8565      1.00000
     32      -1.8475      1.00000
     33      -1.4229      1.00000
     34      -1.3435      1.00000
     35      -1.3370      1.00000
     36      -1.3240      1.00000
     37      -1.0900      1.00000
     38      -0.9904      1.00000
     39      -0.8485      1.00000
     40      -0.8235      1.00000
     41       1.7972      0.00000
     42       1.8312      0.00000
     43       2.8512      0.00000
     44       2.9317      0.00000
     45       3.0302      0.00000
     46       3.0448      0.00000
     47       3.0553      0.00000
     48       3.1977      0.00000
     49       3.8291      0.00000
     50       3.8639      0.00000
     51       3.8788      0.00000
     52       4.0667      0.00000
     53       4.0969      0.00000
     54       4.1640      0.00000
     55       4.3067      0.00000
     56       4.3861      0.00000

 k-point    14 :       0.1429    0.3333    0.2000
  band No.  band energies     occupation 
      1     -17.7543      1.00000
      2     -17.6930      1.00000
      3     -16.7685      1.00000
      4     -16.7092      1.00000
      5     -16.6378      1.00000
      6     -16.6162      1.00000
      7     -16.4461      1.00000
      8     -16.4429      1.00000
      9     -16.2924      1.00000
     10     -16.2854      1.00000
     11      -4.9123      1.00000
     12      -4.8842      1.00000
     13      -4.6103      1.00000
     14      -4.5315      1.00000
     15      -4.2286      1.00000
     16      -4.0334      1.00000
     17      -3.7677      1.00000
     18      -3.6545      1.00000
     19      -3.4811      1.00000
     20      -3.3582      1.00000
     21      -3.1008      1.00000
     22      -3.0541      1.00000
     23      -2.9101      1.00000
     24      -2.7729      1.00000
     25      -2.3147      1.00000
     26      -2.2498      1.00000
     27      -2.1826      1.00000
     28      -2.0891      1.00000
     29      -1.9952      1.00000
     30      -1.9299      1.00000
     31      -1.8722      1.00000
     32      -1.7582      1.00000
     33      -1.5558      1.00000
     34      -1.5432      1.00000
     35      -1.1719      1.00000
     36      -1.1003      1.00000
     37      -0.9457      1.00000
     38      -0.9159      1.00000
     39      -0.7986      1.00000
     40      -0.7642      1.00000
     41       1.9004      0.00000
     42       1.9451      0.00000
     43       2.7868      0.00000
     44       2.8767      0.00000
     45       2.9795      0.00000
     46       3.0609      0.00000
     47       3.1383      0.00000
     48       3.2532      0.00000
     49       3.3127      0.00000
     50       3.3485      0.00000
     51       3.5515      0.00000
     52       3.5848      0.00000
     53       4.2391      0.00000
     54       4.3296      0.00000
     55       4.4761      0.00000
     56       4.5093      0.00000

 k-point    15 :       0.2857    0.3333    0.2000
  band No.  band energies     occupation 
      1     -17.4579      1.00000
      2     -17.3938      1.00000
      3     -16.7003      1.00000
      4     -16.6354      1.00000
      5     -16.6325      1.00000
      6     -16.6147      1.00000
      7     -16.4108      1.00000
      8     -16.4080      1.00000
      9     -16.3160      1.00000
     10     -16.3015      1.00000
     11      -5.1772      1.00000
     12      -5.1745      1.00000
     13      -4.5220      1.00000
     14      -4.4589      1.00000
     15      -4.1422      1.00000
     16      -3.9603      1.00000
     17      -3.8394      1.00000
     18      -3.7891      1.00000
     19      -3.5831      1.00000
     20      -3.4305      1.00000
     21      -3.3810      1.00000
     22      -3.3374      1.00000
     23      -2.8830      1.00000
     24      -2.8181      1.00000
     25      -2.5834      1.00000
     26      -2.5550      1.00000
     27      -2.5073      1.00000
     28      -2.3640      1.00000
     29      -2.3362      1.00000
     30      -2.1835      1.00000
     31      -1.9314      1.00000
     32      -1.7694      1.00000
     33      -1.5507      1.00000
     34      -1.4215      1.00000
     35      -1.1125      1.00000
     36      -0.9957      1.00000
     37      -0.8617      1.00000
     38      -0.7814      1.00000
     39      -0.6839      1.00000
     40      -0.6462      1.00000
     41       2.0694      0.00000
     42       2.1613      0.00000
     43       2.6480      0.00000
     44       2.6940      0.00000
     45       2.8557      0.00000
     46       2.9867      0.00000
     47       3.0650      0.00000
     48       3.1634      0.00000
     49       3.2336      0.00000
     50       3.3736      0.00000
     51       3.4906      0.00000
     52       3.5753      0.00000
     53       4.1477      0.00000
     54       4.2978      0.00000
     55       4.3956      0.00000
     56       4.6068      0.00000

 k-point    16 :       0.4286    0.3333    0.2000
  band No.  band energies     occupation 
      1     -17.1034      1.00000
      2     -17.0395      1.00000
      3     -16.8006      1.00000
      4     -16.7346      1.00000
      5     -16.5814      1.00000
      6     -16.5707      1.00000
      7     -16.3736      1.00000
      8     -16.3692      1.00000
      9     -16.3390      1.00000
     10     -16.3266      1.00000
     11      -5.0925      1.00000
     12      -5.0613      1.00000
     13      -4.6133      1.00000
     14      -4.5452      1.00000
     15      -4.4244      1.00000
     16      -4.4012      1.00000
     17      -3.7934      1.00000
     18      -3.6509      1.00000
     19      -3.5205      1.00000
     20      -3.4555      1.00000
     21      -3.3795      1.00000
     22      -3.2713      1.00000
     23      -3.1470      1.00000
     24      -3.0881      1.00000
     25      -2.8892      1.00000
     26      -2.8072      1.00000
     27      -2.6928      1.00000
     28      -2.5899      1.00000
     29      -2.4902      1.00000
     30      -2.3546      1.00000
     31      -1.9304      1.00000
     32      -1.8286      1.00000
     33      -1.4652      1.00000
     34      -1.3684      1.00000
     35      -1.2158      1.00000
     36      -1.0790      1.00000
     37      -0.7825      1.00000
     38      -0.7314      1.00000
     39      -0.6821      1.00000
     40      -0.6710      1.00000
     41       2.1750      0.00000
     42       2.2366      0.00000
     43       2.6696      0.00000
     44       2.6767      0.00000
     45       2.9380      0.00000
     46       2.9927      0.00000
     47       3.1511      0.00000
     48       3.1947      0.00000
     49       3.4553      0.00000
     50       3.4970      0.00000
     51       3.7635      0.00000
     52       3.8031      0.00000
     53       3.9268      0.00000
     54       4.0911      0.00000
     55       4.3182      0.00000
     56       4.3914      0.00000

 k-point    17 :       0.0000    0.0000    0.4000
  band No.  band energies     occupation 
      1     -17.8369      1.00000
      2     -17.7242      1.00000
      3     -16.7820      1.00000
      4     -16.7022      1.00000
      5     -16.6405      1.00000
      6     -16.5768      1.00000
      7     -16.4721      1.00000
      8     -16.4399      1.00000
      9     -16.2843      1.00000
     10     -16.2476      1.00000
     11      -4.8004      1.00000
     12      -4.6455      1.00000
     13      -4.6190      1.00000
     14      -4.6097      1.00000
     15      -4.6029      1.00000
     16      -4.4949      1.00000
     17      -4.1466      1.00000
     18      -4.1369      1.00000
     19      -3.8332      1.00000
     20      -3.7152      1.00000
     21      -3.6395      1.00000
     22      -2.9352      1.00000
     23      -2.8554      1.00000
     24      -2.6920      1.00000
     25      -2.5878      1.00000
     26      -2.1386      1.00000
     27      -2.0799      1.00000
     28      -1.8959      1.00000
     29      -1.8813      1.00000
     30      -1.7269      1.00000
     31      -1.6364      1.00000
     32      -1.5926      1.00000
     33      -1.3315      1.00000
     34      -1.3221      1.00000
     35      -1.2214      1.00000
     36      -1.1516      1.00000
     37      -1.0407      1.00000
     38      -0.7454      1.00000
     39      -0.6469      1.00000
     40      -0.4847      1.00000
     41       1.8440      0.00000
     42       1.9112      0.00000
     43       2.8744      0.00000
     44       2.9469      0.00000
     45       3.0621      0.00000
     46       3.1033      0.00000
     47       3.1294      0.00000
     48       3.4909      0.00000
     49       3.6312      0.00000
     50       3.8972      0.00000
     51       3.9180      0.00000
     52       4.0804      0.00000
     53       4.2265      0.00000
     54       4.2822      0.00000
     55       4.5391      0.00000
     56       4.6606      0.00000

 k-point    18 :       0.1429    0.0000    0.4000
  band No.  band energies     occupation 
      1     -17.7240      1.00000
      2     -17.6097      1.00000
      3     -16.7375      1.00000
      4     -16.6671      1.00000
      5     -16.6417      1.00000
      6     -16.5676      1.00000
      7     -16.4554      1.00000
      8     -16.4232      1.00000
      9     -16.2856      1.00000
     10     -16.2503      1.00000
     11      -4.9718      1.00000
     12      -4.9105      1.00000
     13      -4.6469      1.00000
     14      -4.5449      1.00000
     15      -4.4952      1.00000
     16      -4.4384      1.00000
     17      -4.1306      1.00000
     18      -4.0965      1.00000
     19      -3.7770      1.00000
     20      -3.7143      1.00000
     21      -3.6158      1.00000
     22      -3.3444      1.00000
     23      -3.1791      1.00000
     24      -2.6830      1.00000
     25      -2.6715      1.00000
     26      -2.4502      1.00000
     27      -2.0903      1.00000
     28      -1.8815      1.00000
     29      -1.8747      1.00000
     30      -1.7264      1.00000
     31      -1.7255      1.00000
     32      -1.6109      1.00000
     33      -1.5497      1.00000
     34      -1.4698      1.00000
     35      -0.8883      1.00000
     36      -0.8849      1.00000
     37      -0.8598      1.00000
     38      -0.7400      1.00000
     39      -0.6124      1.00000
     40      -0.4803      1.00000
     41       1.9202      0.00000
     42       1.9858      0.00000
     43       2.7711      0.00000
     44       2.9444      0.00000
     45       3.0837      0.00000
     46       3.1335      0.00000
     47       3.1728      0.00000
     48       3.3953      0.00000
     49       3.4100      0.00000
     50       3.4557      0.00000
     51       3.6089      0.00000
     52       3.6607      0.00000
     53       4.1435      0.00000
     54       4.6678      0.00000
     55       4.8655      0.00000
     56       4.9375      0.00000

 k-point    19 :       0.2857    0.0000    0.4000
  band No.  band energies     occupation 
      1     -17.4308      1.00000
      2     -17.3124      1.00000
      3     -16.6957      1.00000
      4     -16.6224      1.00000
      5     -16.6187      1.00000
      6     -16.5476      1.00000
      7     -16.4122      1.00000
      8     -16.3803      1.00000
      9     -16.2939      1.00000
     10     -16.2621      1.00000
     11      -5.1688      1.00000
     12      -5.1668      1.00000
     13      -4.5756      1.00000
     14      -4.4915      1.00000
     15      -4.4106      1.00000
     16      -4.3463      1.00000
     17      -4.0820      1.00000
     18      -3.9662      1.00000
     19      -3.9055      1.00000
     20      -3.8552      1.00000
     21      -3.7537      1.00000
     22      -3.5639      1.00000
     23      -3.4278      1.00000
     24      -2.9464      1.00000
     25      -2.9073      1.00000
     26      -2.8144      1.00000
     27      -2.5991      1.00000
     28      -2.4724      1.00000
     29      -2.4574      1.00000
     30      -1.9885      1.00000
     31      -1.7340      1.00000
     32      -1.5212      1.00000
     33      -1.3395      1.00000
     34      -1.3276      1.00000
     35      -0.8374      1.00000
     36      -0.6349      1.00000
     37      -0.6178      1.00000
     38      -0.5394      1.00000
     39      -0.4699      1.00000
     40      -0.4500      1.00000
     41       2.0275      0.00000
     42       2.1700      0.00000
     43       2.6978      0.00000
     44       2.8277      0.00000
     45       2.9618      0.00000
     46       3.1603      0.00000
     47       3.1686      0.00000
     48       3.1888      0.00000
     49       3.4179      0.00000
     50       3.4432      0.00000
     51       3.4821      0.00000
     52       3.6837      0.00000
     53       4.0859      0.00000
     54       4.8124      0.00000
     55       4.9540      0.00000
     56       4.9849      0.00000

 k-point    20 :       0.4286    0.0000    0.4000
  band No.  band energies     occupation 
      1     -17.0798      1.00000
      2     -16.9577      1.00000
      3     -16.8130      1.00000
      4     -16.6993      1.00000
      5     -16.5553      1.00000
      6     -16.5360      1.00000
      7     -16.3602      1.00000
      8     -16.3286      1.00000
      9     -16.3178      1.00000
     10     -16.2872      1.00000
     11      -5.0773      1.00000
     12      -4.9915      1.00000
     13      -4.6689      1.00000
     14      -4.5312      1.00000
     15      -4.5037      1.00000
     16      -4.3765      1.00000
     17      -4.2133      1.00000
     18      -4.0175      1.00000
     19      -3.9392      1.00000
     20      -3.8558      1.00000
     21      -3.6702      1.00000
     22      -3.6307      1.00000
     23      -3.6061      1.00000
     24      -3.2904      1.00000
     25      -3.2158      1.00000
     26      -3.1972      1.00000
     27      -2.9662      1.00000
     28      -2.7268      1.00000
     29      -2.7129      1.00000
     30      -2.3400      1.00000
     31      -1.5844      1.00000
     32      -1.5341      1.00000
     33      -1.5302      1.00000
     34      -1.3240      1.00000
     35      -0.6604      1.00000
     36      -0.5657      1.00000
     37      -0.5594      1.00000
     38      -0.5192      1.00000
     39      -0.3787      1.00000
     40      -0.3724      1.00000
     41       2.1157      0.00000
     42       2.2129      0.00000
     43       2.7681      0.00000
     44       2.7715      0.00000
     45       3.1059      0.00000
     46       3.1564      0.00000
     47       3.1676      0.00000
     48       3.2283      0.00000
     49       3.5908      0.00000
     50       3.6466      0.00000
     51       3.6500      0.00000
     52       3.6964      0.00000
     53       4.2905      0.00000
     54       4.7300      0.00000
     55       4.7911      0.00000
     56       4.9629      0.00000

 k-point    21 :       0.0000    0.3333    0.4000
  band No.  band energies     occupation 
      1     -17.8112      1.00000
      2     -17.7552      1.00000
      3     -16.7537      1.00000
      4     -16.7144      1.00000
      5     -16.6297      1.00000
      6     -16.5972      1.00000
      7     -16.4665      1.00000
      8     -16.4503      1.00000
      9     -16.2733      1.00000
     10     -16.2552      1.00000
     11      -4.7810      1.00000
     12      -4.7197      1.00000
     13      -4.6080      1.00000
     14      -4.6046      1.00000
     15      -4.5572      1.00000
     16      -4.5105      1.00000
     17      -4.1145      1.00000
     18      -4.0542      1.00000
     19      -3.9366      1.00000
     20      -3.8682      1.00000
     21      -3.3808      1.00000
     22      -3.0353      1.00000
     23      -2.9171      1.00000
     24      -2.8774      1.00000
     25      -2.2213      1.00000
     26      -2.0743      1.00000
     27      -2.0388      1.00000
     28      -1.9505      1.00000
     29      -1.9485      1.00000
     30      -1.8232      1.00000
     31      -1.6943      1.00000
     32      -1.6525      1.00000
     33      -1.3287      1.00000
     34      -1.3239      1.00000
     35      -1.1405      1.00000
     36      -1.0860      1.00000
     37      -1.0196      1.00000
     38      -0.8368      1.00000
     39      -0.5922      1.00000
     40      -0.5178      1.00000
     41       1.8603      0.00000
     42       1.8939      0.00000
     43       2.9401      0.00000
     44       3.0163      0.00000
     45       3.0720      0.00000
     46       3.0925      0.00000
     47       3.1003      0.00000
     48       3.2789      0.00000
     49       3.8187      0.00000
     50       3.9000      0.00000
     51       3.9093      0.00000
     52       4.0740      0.00000
     53       4.1215      0.00000
     54       4.1934      0.00000
     55       4.6185      0.00000
     56       4.6567      0.00000

 k-point    22 :       0.1429    0.3333    0.4000
  band No.  band energies     occupation 
      1     -17.6981      1.00000
      2     -17.6414      1.00000
      3     -16.7081      1.00000
      4     -16.6747      1.00000
      5     -16.6315      1.00000
      6     -16.5928      1.00000
      7     -16.4497      1.00000
      8     -16.4336      1.00000
      9     -16.2748      1.00000
     10     -16.2574      1.00000
     11      -4.9611      1.00000
     12      -4.9308      1.00000
     13      -4.6271      1.00000
     14      -4.5817      1.00000
     15      -4.4713      1.00000
     16      -4.4450      1.00000
     17      -4.0942      1.00000
     18      -4.0096      1.00000
     19      -3.9138      1.00000
     20      -3.8269      1.00000
     21      -3.3881      1.00000
     22      -3.3127      1.00000
     23      -3.2274      1.00000
     24      -3.0512      1.00000
     25      -2.3306      1.00000
     26      -2.2963      1.00000
     27      -2.0817      1.00000
     28      -2.0404      1.00000
     29      -1.8574      1.00000
     30      -1.7768      1.00000
     31      -1.7160      1.00000
     32      -1.6442      1.00000
     33      -1.5454      1.00000
     34      -1.5217      1.00000
     35      -0.9051      1.00000
     36      -0.8986      1.00000
     37      -0.7950      1.00000
     38      -0.7445      1.00000
     39      -0.5684      1.00000
     40      -0.5049      1.00000
     41       1.9352      0.00000
     42       1.9684      0.00000
     43       2.8536      0.00000
     44       2.9873      0.00000
     45       3.0426      0.00000
     46       3.1419      0.00000
     47       3.1673      0.00000
     48       3.2774      0.00000
     49       3.4256      0.00000
     50       3.4425      0.00000
     51       3.6251      0.00000
     52       3.6529      0.00000
     53       4.2305      0.00000
     54       4.4488      0.00000
     55       4.8840      0.00000
     56       4.9489      0.00000

 k-point    23 :       0.2857    0.3333    0.4000
  band No.  band energies     occupation 
      1     -17.4048      1.00000
      2     -17.3463      1.00000
      3     -16.6620      1.00000
      4     -16.6279      1.00000
      5     -16.6119      1.00000
      6     -16.5744      1.00000
      7     -16.4064      1.00000
      8     -16.3909      1.00000
      9     -16.2834      1.00000
     10     -16.2680      1.00000
     11      -5.1720      1.00000
     12      -5.1706      1.00000
     13      -4.5640      1.00000
     14      -4.5274      1.00000
     15      -4.3692      1.00000
     16      -4.3327      1.00000
     17      -4.1037      1.00000
     18      -3.9714      1.00000
     19      -3.8967      1.00000
     20      -3.8421      1.00000
     21      -3.7734      1.00000
     22      -3.5541      1.00000
     23      -3.4276      1.00000
     24      -3.1937      1.00000
     25      -2.7361      1.00000
     26      -2.6607      1.00000
     27      -2.5558      1.00000
     28      -2.4312      1.00000
     29      -2.4156      1.00000
     30      -2.0872      1.00000
     31      -1.9087      1.00000
     32      -1.6641      1.00000
     33      -1.2576      1.00000
     34      -1.2079      1.00000
     35      -0.8406      1.00000
     36      -0.7319      1.00000
     37      -0.5504      1.00000
     38      -0.5166      1.00000
     39      -0.4606      1.00000
     40      -0.4529      1.00000
     41       2.0773      0.00000
     42       2.1511      0.00000
     43       2.7360      0.00000
     44       2.8022      0.00000
     45       3.0045      0.00000
     46       3.1072      0.00000
     47       3.2195      0.00000
     48       3.2294      0.00000
     49       3.3369      0.00000
     50       3.3914      0.00000
     51       3.5049      0.00000
     52       3.5861      0.00000
     53       4.2705      0.00000
     54       4.5970      0.00000
     55       4.8704      0.00000
     56       4.9902      0.00000

 k-point    24 :       0.4286    0.3333    0.4000
  band No.  band energies     occupation 
      1     -17.0571      1.00000
      2     -17.0001      1.00000
      3     -16.7733      1.00000
      4     -16.7205      1.00000
      5     -16.5499      1.00000
      6     -16.5402      1.00000
      7     -16.3555      1.00000
      8     -16.3425      1.00000
      9     -16.3042      1.00000
     10     -16.2917      1.00000
     11      -5.0636      1.00000
     12      -5.0227      1.00000
     13      -4.6183      1.00000
     14      -4.5486      1.00000
     15      -4.5005      1.00000
     16      -4.4443      1.00000
     17      -4.1733      1.00000
     18      -4.0846      1.00000
     19      -3.9080      1.00000
     20      -3.8618      1.00000
     21      -3.6418      1.00000
     22      -3.6119      1.00000
     23      -3.4813      1.00000
     24      -3.3628      1.00000
     25      -3.2783      1.00000
     26      -3.1829      1.00000
     27      -2.9701      1.00000
     28      -2.7590      1.00000
     29      -2.5499      1.00000
     30      -2.3182      1.00000
     31      -1.9178      1.00000
     32      -1.7757      1.00000
     33      -1.1665      1.00000
     34      -1.1555      1.00000
     35      -0.7810      1.00000
     36      -0.7309      1.00000
     37      -0.4595      1.00000
     38      -0.4388      1.00000
     39      -0.3836      1.00000
     40      -0.3764      1.00000
     41       2.1845      0.00000
     42       2.2392      0.00000
     43       2.7413      0.00000
     44       2.7485      0.00000
     45       3.0963      0.00000
     46       3.1168      0.00000
     47       3.2227      0.00000
     48       3.2869      0.00000
     49       3.4753      0.00000
     50       3.4895      0.00000
     51       3.7161      0.00000
     52       3.7523      0.00000
     53       4.3978      0.00000
     54       4.5965      0.00000
     55       4.8314      0.00000
     56       4.9191      0.00000
 Fermi energy:        -0.0777881322

 spin component 2

 k-point     1 :       0.0000    0.0000    0.0000
  band No.  band energies     occupation 
      1     -17.9311      1.00000
      2     -17.8051      1.00000
      3     -16.8939      1.00000
      4     -16.7514      1.00000
      5     -16.6460      1.00000
      6     -16.6267      1.00000
      7     -16.4693      1.00000
      8     -16.4382      1.00000
      9     -16.3133      1.00000
     10     -16.2801      1.00000
     11      -4.6844      1.00000
     12      -4.5553      1.00000
     13      -4.5503      1.00000
     14      -4.5161      1.00000
     15      -4.4467      1.00000
     16      -3.8459      1.00000
     17      -3.3113      1.00000
     18      -3.1660      1.00000
     19      -3.0240      1.00000
     20      -2.9254      1.00000
     21      -2.6638      1.00000
     22      -2.5804      1.00000
     23      -2.5605      1.00000
     24      -2.5188      1.00000
     25      -2.4934      1.00000
     26      -2.4311      1.00000
     27      -2.2556      1.00000
     28      -2.0708      1.00000
     29      -2.0256      1.00000
     30      -1.9814      1.00000
     31      -1.9736      1.00000
     32      -1.8446      1.00000
     33      -1.8138      1.00000
     34      -1.3807      1.00000
     35      -1.3628      1.00000
     36      -1.3427      1.00000
     37      -1.2696      1.00000
     38      -1.0777      1.00000
     39      -1.0012      1.00000
     40      -0.9397      1.00000
     41       1.7506      0.00000
     42       1.8013      0.00000
     43       2.7358      0.00000
     44       2.7858      0.00000
     45       3.0100      0.00000
     46       3.0217      0.00000
     47       3.0370      0.00000
     48       3.2917      0.00000
     49       3.5992      0.00000
     50       3.8381      0.00000
     51       3.8786      0.00000
     52       3.9029      0.00000
     53       4.0438      0.00000
     54       4.1758      0.00000
     55       4.2258      0.00000
     56       4.2971      0.00000

 k-point     2 :       0.1429    0.0000    0.0000
  band No.  band energies     occupation 
      1     -17.8172      1.00000
      2     -17.6886      1.00000
      3     -16.8494      1.00000
      4     -16.7069      1.00000
      5     -16.6460      1.00000
      6     -16.6161      1.00000
      7     -16.4560      1.00000
      8     -16.4254      1.00000
      9     -16.3278      1.00000
     10     -16.2847      1.00000
     11      -4.8963      1.00000
     12      -4.8419      1.00000
     13      -4.6349      1.00000
     14      -4.3873      1.00000
     15      -4.3806      1.00000
     16      -3.7702      1.00000
     17      -3.1474      1.00000
     18      -3.1346      1.00000
     19      -3.0690      1.00000
     20      -2.9901      1.00000
     21      -2.9889      1.00000
     22      -2.9487      1.00000
     23      -2.6250      1.00000
     24      -2.4997      1.00000
     25      -2.3963      1.00000
     26      -2.3154      1.00000
     27      -2.2918      1.00000
     28      -2.2321      1.00000
     29      -2.1465      1.00000
     30      -2.1091      1.00000
     31      -2.0653      1.00000
     32      -1.8174      1.00000
     33      -1.6720      1.00000
     34      -1.5759      1.00000
     35      -1.4881      1.00000
     36      -1.1079      1.00000
     37      -1.0882      1.00000
     38      -0.9662      1.00000
     39      -0.9653      1.00000
     40      -0.8454      1.00000
     41       1.8332      0.00000
     42       1.9474      0.00000
     43       2.6788      0.00000
     44       2.7643      0.00000
     45       2.9414      0.00000
     46       3.0676      0.00000
     47       3.0966      0.00000
     48       3.1450      0.00000
     49       3.3046      0.00000
     50       3.4227      0.00000
     51       3.4235      0.00000
     52       3.4660      0.00000
     53       3.8724      0.00000
     54       4.1536      0.00000
     55       4.4004      0.00000
     56       4.5221      0.00000

 k-point     3 :       0.2857    0.0000    0.0000
  band No.  band energies     occupation 
      1     -17.5199      1.00000
      2     -17.3830      1.00000
      3     -16.7846      1.00000
      4     -16.6433      1.00000
      5     -16.6351      1.00000
      6     -16.5934      1.00000
      7     -16.4250      1.00000
      8     -16.3930      1.00000
      9     -16.3717      1.00000
     10     -16.3005      1.00000
     11      -5.1740      1.00000
     12      -5.1667      1.00000
     13      -4.5260      1.00000
     14      -4.3480      1.00000
     15      -4.2690      1.00000
     16      -3.7502      1.00000
     17      -3.7192      1.00000
     18      -3.5106      1.00000
     19      -3.1942      1.00000
     20      -3.0546      1.00000
     21      -3.0237      1.00000
     22      -3.0190      1.00000
     23      -2.6119      1.00000
     24      -2.5361      1.00000
     25      -2.4939      1.00000
     26      -2.4131      1.00000
     27      -2.3669      1.00000
     28      -2.3567      1.00000
     29      -2.2259      1.00000
     30      -2.2210      1.00000
     31      -2.1519      1.00000
     32      -1.9788      1.00000
     33      -1.8665      1.00000
     34      -1.6231      1.00000
     35      -1.3585      1.00000
     36      -1.1805      1.00000
     37      -1.0192      1.00000
     38      -0.9736      1.00000
     39      -0.7546      1.00000
     40      -0.7085      1.00000
     41       1.9784      0.00000
     42       2.1889      0.00000
     43       2.5663      0.00000
     44       2.6600      0.00000
     45       2.6830      0.00000
     46       2.7970      0.00000
     47       3.0078      0.00000
     48       3.0638      0.00000
     49       3.1711      0.00000
     50       3.2850      0.00000
     51       3.5183      0.00000
     52       3.5577      0.00000
     53       3.6247      0.00000
     54       4.1842      0.00000
     55       4.2807      0.00000
     56       4.3504      0.00000

 k-point     4 :       0.4286    0.0000    0.0000
  band No.  band energies     occupation 
      1     -17.1591      1.00000
      2     -17.0077      1.00000
      3     -16.8807      1.00000
      4     -16.7148      1.00000
      5     -16.6028      1.00000
      6     -16.5812      1.00000
      7     -16.3993      1.00000
      8     -16.3959      1.00000
      9     -16.3559      1.00000
     10     -16.3254      1.00000
     11      -5.1078      1.00000
     12      -5.0497      1.00000
     13      -4.6460      1.00000
     14      -4.5233      1.00000
     15      -4.3824      1.00000
     16      -4.3598      1.00000
     17      -3.8060      1.00000
     18      -3.4885      1.00000
     19      -3.1221      1.00000
     20      -3.0617      1.00000
     21      -3.0285      1.00000
     22      -2.9440      1.00000
     23      -2.8113      1.00000
     24      -2.7892      1.00000
     25      -2.7305      1.00000
     26      -2.5223      1.00000
     27      -2.4886      1.00000
     28      -2.4794      1.00000
     29      -2.3010      1.00000
     30      -2.2053      1.00000
     31      -2.1258      1.00000
     32      -2.0133      1.00000
     33      -1.9499      1.00000
     34      -1.6982      1.00000
     35      -1.2859      1.00000
     36      -1.1399      1.00000
     37      -1.1266      1.00000
     38      -0.9335      1.00000
     39      -0.8477      1.00000
     40      -0.8304      1.00000
     41       2.0767      0.00000
     42       2.1923      0.00000
     43       2.5788      0.00000
     44       2.6444      0.00000
     45       2.8128      0.00000
     46       3.0047      0.00000
     47       3.0236      0.00000
     48       3.0467      0.00000
     49       3.2151      0.00000
     50       3.2755      0.00000
     51       3.6291      0.00000
     52       3.6811      0.00000
     53       3.7858      0.00000
     54       3.9032      0.00000
     55       4.1484      0.00000
     56       4.1523      0.00000

 k-point     5 :       0.0000    0.3333    0.0000
  band No.  band energies     occupation 
      1     -17.9029      1.00000
      2     -17.8403      1.00000
      3     -16.8523      1.00000
      4     -16.7810      1.00000
      5     -16.6414      1.00000
      6     -16.6316      1.00000
      7     -16.4677      1.00000
      8     -16.4544      1.00000
      9     -16.2995      1.00000
     10     -16.2843      1.00000
     11      -4.6749      1.00000
     12      -4.6219      1.00000
     13      -4.5541      1.00000
     14      -4.5516      1.00000
     15      -4.2584      1.00000
     16      -4.0020      1.00000
     17      -3.1859      1.00000
     18      -3.0811      1.00000
     19      -3.0588      1.00000
     20      -2.9260      1.00000
     21      -2.7671      1.00000
     22      -2.6867      1.00000
     23      -2.5452      1.00000
     24      -2.5118      1.00000
     25      -2.4677      1.00000
     26      -2.4337      1.00000
     27      -2.1660      1.00000
     28      -2.0581      1.00000
     29      -2.0358      1.00000
     30      -2.0058      1.00000
     31      -1.9790      1.00000
     32      -1.9751      1.00000
     33      -1.6644      1.00000
     34      -1.4970      1.00000
     35      -1.3578      1.00000
     36      -1.3478      1.00000
     37      -1.1679      1.00000
     38      -1.0256      1.00000
     39      -1.0238      1.00000
     40      -0.9769      1.00000
     41       1.7626      0.00000
     42       1.7880      0.00000
     43       2.8150      0.00000
     44       2.8462      0.00000
     45       2.9752      0.00000
     46       3.0135      0.00000
     47       3.0193      0.00000
     48       3.0666      0.00000
     49       3.8369      0.00000
     50       3.8448      0.00000
     51       3.8637      0.00000
     52       3.9558      0.00000
     53       4.0814      0.00000
     54       4.0817      0.00000
     55       4.1463      0.00000
     56       4.1474      0.00000

 k-point     6 :       0.1429    0.3333    0.0000
  band No.  band energies     occupation 
      1     -17.7887      1.00000
      2     -17.7249      1.00000
      3     -16.8058      1.00000
      4     -16.7338      1.00000
      5     -16.6409      1.00000
      6     -16.6263      1.00000
      7     -16.4552      1.00000
      8     -16.4432      1.00000
      9     -16.3093      1.00000
     10     -16.2902      1.00000
     11      -4.8922      1.00000
     12      -4.8665      1.00000
     13      -4.5981      1.00000
     14      -4.5166      1.00000
     15      -4.1719      1.00000
     16      -3.9161      1.00000
     17      -3.0892      1.00000
     18      -3.0737      1.00000
     19      -3.0480      1.00000
     20      -3.0051      1.00000
     21      -2.9989      1.00000
     22      -2.9322      1.00000
     23      -2.6795      1.00000
     24      -2.5805      1.00000
     25      -2.3677      1.00000
     26      -2.3468      1.00000
     27      -2.2912      1.00000
     28      -2.1930      1.00000
     29      -2.1550      1.00000
     30      -2.1149      1.00000
     31      -2.0348      1.00000
     32      -1.8677      1.00000
     33      -1.6184      1.00000
     34      -1.5881      1.00000
     35      -1.4090      1.00000
     36      -1.2391      1.00000
     37      -1.0313      1.00000
     38      -1.0058      1.00000
     39      -0.9195      1.00000
     40      -0.8505      1.00000
     41       1.8675      0.00000
     42       1.9267      0.00000
     43       2.7555      0.00000
     44       2.7876      0.00000
     45       2.9109      0.00000
     46       2.9506      0.00000
     47       3.1046      0.00000
     48       3.2234      0.00000
     49       3.2346      0.00000
     50       3.2813      0.00000
     51       3.4937      0.00000
     52       3.5292      0.00000
     53       3.9647      0.00000
     54       4.2036      0.00000
     55       4.2579      0.00000
     56       4.4929      0.00000

 k-point     7 :       0.2857    0.3333    0.0000
  band No.  band energies     occupation 
      1     -17.4907      1.00000
      2     -17.4235      1.00000
      3     -16.7319      1.00000
      4     -16.6412      1.00000
      5     -16.6400      1.00000
      6     -16.6342      1.00000
      7     -16.4256      1.00000
      8     -16.4182      1.00000
      9     -16.3358      1.00000
     10     -16.3085      1.00000
     11      -5.1781      1.00000
     12      -5.1742      1.00000
     13      -4.5053      1.00000
     14      -4.4432      1.00000
     15      -4.0749      1.00000
     16      -3.8076      1.00000
     17      -3.7289      1.00000
     18      -3.6494      1.00000
     19      -3.1124      1.00000
     20      -3.0420      1.00000
     21      -3.0021      1.00000
     22      -2.9850      1.00000
     23      -2.5867      1.00000
     24      -2.5736      1.00000
     25      -2.5138      1.00000
     26      -2.4527      1.00000
     27      -2.4154      1.00000
     28      -2.3819      1.00000
     29      -2.1736      1.00000
     30      -2.1650      1.00000
     31      -2.0746      1.00000
     32      -1.9577      1.00000
     33      -1.9442      1.00000
     34      -1.7286      1.00000
     35      -1.2263      1.00000
     36      -1.1510      1.00000
     37      -1.0866      1.00000
     38      -0.9880      1.00000
     39      -0.7497      1.00000
     40      -0.7437      1.00000
     41       2.0644      0.00000
     42       2.1729      0.00000
     43       2.5848      0.00000
     44       2.6204      0.00000
     45       2.7644      0.00000
     46       2.8274      0.00000
     47       2.9130      0.00000
     48       2.9651      0.00000
     49       3.1555      0.00000
     50       3.3576      0.00000
     51       3.4379      0.00000
     52       3.5346      0.00000
     53       3.7804      0.00000
     54       4.0677      0.00000
     55       4.3434      0.00000
     56       4.4743      0.00000

 k-point     8 :       0.4286    0.3333    0.0000
  band No.  band energies     occupation 
      1     -17.1332      1.00000
      2     -17.0654      1.00000
      3     -16.8201      1.00000
      4     -16.7451      1.00000
      5     -16.5974      1.00000
      6     -16.5866      1.00000
      7     -16.3998      1.00000
      8     -16.3988      1.00000
      9     -16.3456      1.00000
     10     -16.3309      1.00000
     11      -5.1043      1.00000
     12      -5.0773      1.00000
     13      -4.6102      1.00000
     14      -4.5518      1.00000
     15      -4.3794      1.00000
     16      -4.3687      1.00000
     17      -3.6825      1.00000
     18      -3.4471      1.00000
     19      -3.2440      1.00000
     20      -3.0735      1.00000
     21      -3.0472      1.00000
     22      -3.0367      1.00000
     23      -2.8368      1.00000
     24      -2.8142      1.00000
     25      -2.6200      1.00000
     26      -2.6197      1.00000
     27      -2.4683      1.00000
     28      -2.4257      1.00000
     29      -2.2729      1.00000
     30      -2.2385      1.00000
     31      -1.9707      1.00000
     32      -1.9697      1.00000
     33      -1.9359      1.00000
     34      -1.6225      1.00000
     35      -1.5239      1.00000
     36      -1.2944      1.00000
     37      -1.0206      1.00000
     38      -0.9504      1.00000
     39      -0.8088      1.00000
     40      -0.8041      1.00000
     41       2.1714      0.00000
     42       2.2355      0.00000
     43       2.5787      0.00000
     44       2.6119      0.00000
     45       2.7853      0.00000
     46       2.8705      0.00000
     47       3.0574      0.00000
     48       3.0761      0.00000
     49       3.2140      0.00000
     50       3.3276      0.00000
     51       3.5647      0.00000
     52       3.6942      0.00000
     53       3.8346      0.00000
     54       3.8514      0.00000
     55       4.1440      0.00000
     56       4.1466      0.00000

 k-point     9 :       0.0000    0.0000    0.2000
  band No.  band energies     occupation 
      1     -17.8955      1.00000
      2     -17.7743      1.00000
      3     -16.8517      1.00000
      4     -16.7312      1.00000
      5     -16.6443      1.00000
      6     -16.6109      1.00000
      7     -16.4586      1.00000
      8     -16.4483      1.00000
      9     -16.2900      1.00000
     10     -16.2811      1.00000
     11      -4.7174      1.00000
     12      -4.5763      1.00000
     13      -4.5706      1.00000
     14      -4.5370      1.00000
     15      -4.4630      1.00000
     16      -3.9959      1.00000
     17      -3.9277      1.00000
     18      -3.5912      1.00000
     19      -3.5723      1.00000
     20      -3.3523      1.00000
     21      -2.9856      1.00000
     22      -2.7436      1.00000
     23      -2.6685      1.00000
     24      -2.6071      1.00000
     25      -2.4213      1.00000
     26      -2.2533      1.00000
     27      -2.0571      1.00000
     28      -2.0235      1.00000
     29      -1.9317      1.00000
     30      -1.8744      1.00000
     31      -1.8427      1.00000
     32      -1.7061      1.00000
     33      -1.4809      1.00000
     34      -1.3471      1.00000
     35      -1.3342      1.00000
     36      -1.2180      1.00000
     37      -1.2126      1.00000
     38      -0.9816      1.00000
     39      -0.8451      1.00000
     40      -0.8188      1.00000
     41       1.7810      0.00000
     42       1.8490      0.00000
     43       2.7779      0.00000
     44       2.8645      0.00000
     45       3.0172      0.00000
     46       3.0676      0.00000
     47       3.0990      0.00000
     48       3.4771      0.00000
     49       3.5651      0.00000
     50       3.8588      0.00000
     51       3.8910      0.00000
     52       4.0582      0.00000
     53       4.1349      0.00000
     54       4.1948      0.00000
     55       4.4045      0.00000
     56       4.4213      0.00000

 k-point    10 :       0.1429    0.0000    0.2000
  band No.  band energies     occupation 
      1     -17.7819      1.00000
      2     -17.6585      1.00000
      3     -16.8073      1.00000
      4     -16.6902      1.00000
      5     -16.6445      1.00000
      6     -16.6005      1.00000
      7     -16.4440      1.00000
      8     -16.4343      1.00000
      9     -16.3002      1.00000
     10     -16.2845      1.00000
     11      -4.9194      1.00000
     12      -4.8622      1.00000
     13      -4.6433      1.00000
     14      -4.4105      1.00000
     15      -4.4027      1.00000
     16      -3.8989      1.00000
     17      -3.8656      1.00000
     18      -3.5715      1.00000
     19      -3.5518      1.00000
     20      -3.3508      1.00000
     21      -3.1168      1.00000
     22      -3.0124      1.00000
     23      -2.9348      1.00000
     24      -2.5916      1.00000
     25      -2.4636      1.00000
     26      -2.3967      1.00000
     27      -2.2077      1.00000
     28      -2.0100      1.00000
     29      -1.9721      1.00000
     30      -1.9461      1.00000
     31      -1.8436      1.00000
     32      -1.7210      1.00000
     33      -1.5422      1.00000
     34      -1.5365      1.00000
     35      -1.2054      1.00000
     36      -1.0359      1.00000
     37      -0.9534      1.00000
     38      -0.8803      1.00000
     39      -0.8661      1.00000
     40      -0.7717      1.00000
     41       1.8768      0.00000
     42       1.9634      0.00000
     43       2.7096      0.00000
     44       2.8403      0.00000
     45       3.0056      0.00000
     46       3.1057      0.00000
     47       3.1435      0.00000
     48       3.2815      0.00000
     49       3.3581      0.00000
     50       3.4255      0.00000
     51       3.4812      0.00000
     52       3.5791      0.00000
     53       4.1408      0.00000
     54       4.2483      0.00000
     55       4.6252      0.00000
     56       4.7242      0.00000

 k-point    11 :       0.2857    0.0000    0.2000
  band No.  band energies     occupation 
      1     -17.4859      1.00000
      2     -17.3558      1.00000
      3     -16.7475      1.00000
      4     -16.6374      1.00000
      5     -16.6297      1.00000
      6     -16.5781      1.00000
      7     -16.4088      1.00000
      8     -16.3987      1.00000
      9     -16.3310      1.00000
     10     -16.2980      1.00000
     11      -5.1729      1.00000
     12      -5.1692      1.00000
     13      -4.5443      1.00000
     14      -4.3793      1.00000
     15      -4.2880      1.00000
     16      -3.9222      1.00000
     17      -3.8343      1.00000
     18      -3.6955      1.00000
     19      -3.6616      1.00000
     20      -3.4113      1.00000
     21      -3.3587      1.00000
     22      -3.3045      1.00000
     23      -2.8650      1.00000
     24      -2.8244      1.00000
     25      -2.6783      1.00000
     26      -2.6492      1.00000
     27      -2.4420      1.00000
     28      -2.4307      1.00000
     29      -2.3899      1.00000
     30      -1.9896      1.00000
     31      -1.8952      1.00000
     32      -1.7670      1.00000
     33      -1.5934      1.00000
     34      -1.3962      1.00000
     35      -1.1321      1.00000
     36      -1.0209      1.00000
     37      -0.8609      1.00000
     38      -0.7842      1.00000
     39      -0.6631      1.00000
     40      -0.6415      1.00000
     41       1.9999      0.00000
     42       2.1761      0.00000
     43       2.6286      0.00000
     44       2.7191      0.00000
     45       2.7869      0.00000
     46       3.0014      0.00000
     47       3.0837      0.00000
     48       3.1660      0.00000
     49       3.3400      0.00000
     50       3.3538      0.00000
     51       3.5200      0.00000
     52       3.6066      0.00000
     53       4.0463      0.00000
     54       4.1335      0.00000
     55       4.6030      0.00000
     56       4.6092      0.00000

 k-point    12 :       0.4286    0.0000    0.2000
  band No.  band energies     occupation 
      1     -17.1282      1.00000
      2     -16.9877      1.00000
      3     -16.8528      1.00000
      4     -16.7083      1.00000
      5     -16.5870      1.00000
      6     -16.5657      1.00000
      7     -16.3738      1.00000
      8     -16.3569      1.00000
      9     -16.3556      1.00000
     10     -16.3226      1.00000
     11      -5.0994      1.00000
     12      -5.0329      1.00000
     13      -4.6545      1.00000
     14      -4.5157      1.00000
     15      -4.4296      1.00000
     16      -4.3770      1.00000
     17      -3.8738      1.00000
     18      -3.6221      1.00000
     19      -3.5677      1.00000
     20      -3.4968      1.00000
     21      -3.2790      1.00000
     22      -3.1824      1.00000
     23      -3.1696      1.00000
     24      -3.1059      1.00000
     25      -2.9749      1.00000
     26      -2.8029      1.00000
     27      -2.6465      1.00000
     28      -2.5911      1.00000
     29      -2.5702      1.00000
     30      -2.3095      1.00000
     31      -1.7682      1.00000
     32      -1.7562      1.00000
     33      -1.6077      1.00000
     34      -1.6004      1.00000
     35      -1.0519      1.00000
     36      -0.9151      1.00000
     37      -0.8850      1.00000
     38      -0.7351      1.00000
     39      -0.7152      1.00000
     40      -0.6674      1.00000
     41       2.0900      0.00000
     42       2.1987      0.00000
     43       2.6819      0.00000
     44       2.6955      0.00000
     45       2.9482      0.00000
     46       3.0820      0.00000
     47       3.1127      0.00000
     48       3.1507      0.00000
     49       3.5457      0.00000
     50       3.6629      0.00000
     51       3.6736      0.00000
     52       3.7339      0.00000
     53       3.8429      0.00000
     54       4.1753      0.00000
     55       4.2573      0.00000
     56       4.4149      0.00000

 k-point    13 :       0.0000    0.3333    0.2000
  band No.  band energies     occupation 
      1     -17.8681      1.00000
      2     -17.8079      1.00000
      3     -16.8146      1.00000
      4     -16.7541      1.00000
      5     -16.6377      1.00000
      6     -16.6208      1.00000
      7     -16.4605      1.00000
      8     -16.4566      1.00000
      9     -16.2848      1.00000
     10     -16.2808      1.00000
     11      -4.7001      1.00000
     12      -4.6332      1.00000
     13      -4.5749      1.00000
     14      -4.5720      1.00000
     15      -4.3208      1.00000
     16      -4.1327      1.00000
     17      -3.8123      1.00000
     18      -3.6794      1.00000
     19      -3.4935      1.00000
     20      -3.3637      1.00000
     21      -2.9631      1.00000
     22      -2.7958      1.00000
     23      -2.7266      1.00000
     24      -2.6893      1.00000
     25      -2.2114      1.00000
     26      -2.1865      1.00000
     27      -2.0605      1.00000
     28      -2.0271      1.00000
     29      -1.9668      1.00000
     30      -1.8614      1.00000
     31      -1.8565      1.00000
     32      -1.8475      1.00000
     33      -1.4229      1.00000
     34      -1.3435      1.00000
     35      -1.3370      1.00000
     36      -1.3240      1.00000
     37      -1.0900      1.00000
     38      -0.9904      1.00000
     39      -0.8485      1.00000
     40      -0.8235      1.00000
     41       1.7972      0.00000
     42       1.8312      0.00000
     43       2.8512      0.00000
     44       2.9317      0.00000
     45       3.0302      0.00000
     46       3.0448      0.00000
     47       3.0553      0.00000
     48       3.1977      0.00000
     49       3.8291      0.00000
     50       3.8639      0.00000
     51       3.8788      0.00000
     52       4.0667      0.00000
     53       4.0969      0.00000
     54       4.1640      0.00000
     55       4.3067      0.00000
     56       4.3861      0.00000

 k-point    14 :       0.1429    0.3333    0.2000
  band No.  band energies     occupation 
      1     -17.7543      1.00000
      2     -17.6930      1.00000
      3     -16.7685      1.00000
      4     -16.7092      1.00000
      5     -16.6378      1.00000
      6     -16.6162      1.00000
      7     -16.4461      1.00000
      8     -16.4429      1.00000
      9     -16.2924      1.00000
     10     -16.2854      1.00000
     11      -4.9123      1.00000
     12      -4.8842      1.00000
     13      -4.6103      1.00000
     14      -4.5315      1.00000
     15      -4.2286      1.00000
     16      -4.0334      1.00000
     17      -3.7677      1.00000
     18      -3.6545      1.00000
     19      -3.4811      1.00000
     20      -3.3582      1.00000
     21      -3.1008      1.00000
     22      -3.0541      1.00000
     23      -2.9101      1.00000
     24      -2.7729      1.00000
     25      -2.3147      1.00000
     26      -2.2498      1.00000
     27      -2.1826      1.00000
     28      -2.0891      1.00000
     29      -1.9952      1.00000
     30      -1.9299      1.00000
     31      -1.8722      1.00000
     32      -1.7582      1.00000
     33      -1.5558      1.00000
     34      -1.5432      1.00000
     35      -1.1719      1.00000
     36      -1.1003      1.00000
     37      -0.9457      1.00000
     38      -0.9159      1.00000
     39      -0.7986      1.00000
     40      -0.7642      1.00000
     41       1.9004      0.00000
     42       1.9451      0.00000
     43       2.7868      0.00000
     44       2.8767      0.00000
     45       2.9795      0.00000
     46       3.0609      0.00000
     47       3.1383      0.00000
     48       3.2532      0.00000
     49       3.3127      0.00000
     50       3.3485      0.00000
     51       3.5515      0.00000
     52       3.5848      0.00000
     53       4.2391      0.00000
     54       4.3296      0.00000
     55       4.4761      0.00000
     56       4.5093      0.00000

 k-point    15 :       0.2857    0.3333    0.2000
  band No.  band energies     occupation 
      1     -17.4579      1.00000
      2     -17.3938      1.00000
      3     -16.7003      1.00000
      4     -16.6354      1.00000
      5     -16.6325      1.00000
      6     -16.6147      1.00000
      7     -16.4108      1.00000
      8     -16.4080      1.00000
      9     -16.3160      1.00000
     10     -16.3015      1.00000
     11      -5.1772      1.00000
     12      -5.1745      1.00000
     13      -4.5220      1.00000
     14      -4.4589      1.00000
     15      -4.1422      1.00000
     16      -3.9603      1.00000
     17      -3.8394      1.00000
     18      -3.7891      1.00000
     19      -3.5831      1.00000
     20      -3.4305      1.00000
     21      -3.3810      1.00000
     22      -3.3374      1.00000
     23      -2.8830      1.00000
     24      -2.8181      1.00000
     25      -2.5834      1.00000
     26      -2.5550      1.00000
     27      -2.5073      1.00000
     28      -2.3640      1.00000
     29      -2.3362      1.00000
     30      -2.1835      1.00000
     31      -1.9314      1.00000
     32      -1.7694      1.00000
     33      -1.5507      1.00000
     34      -1.4215      1.00000
     35      -1.1125      1.00000
     36      -0.9957      1.00000
     37      -0.8617      1.00000
     38      -0.7814      1.00000
     39      -0.6839      1.00000
     40      -0.6462      1.00000
     41       2.0694      0.00000
     42       2.1613      0.00000
     43       2.6480      0.00000
     44       2.6940      0.00000
     45       2.8557      0.00000
     46       2.9867      0.00000
     47       3.0650      0.00000
     48       3.1634      0.00000
     49       3.2336      0.00000
     50       3.3736      0.00000
     51       3.4906      0.00000
     52       3.5753      0.00000
     53       4.1477      0.00000
     54       4.2978      0.00000
     55       4.3956      0.00000
     56       4.6068      0.00000

 k-point    16 :       0.4286    0.3333    0.2000
  band No.  band energies     occupation 
      1     -17.1034      1.00000
      2     -17.0395      1.00000
      3     -16.8006      1.00000
      4     -16.7346      1.00000
      5     -16.5814      1.00000
      6     -16.5707      1.00000
      7     -16.3736      1.00000
      8     -16.3692      1.00000
      9     -16.3390      1.00000
     10     -16.3266      1.00000
     11      -5.0925      1.00000
     12      -5.0613      1.00000
     13      -4.6133      1.00000
     14      -4.5452      1.00000
     15      -4.4244      1.00000
     16      -4.4012      1.00000
     17      -3.7934      1.00000
     18      -3.6509      1.00000
     19      -3.5205      1.00000
     20      -3.4555      1.00000
     21      -3.3795      1.00000
     22      -3.2713      1.00000
     23      -3.1470      1.00000
     24      -3.0881      1.00000
     25      -2.8892      1.00000
     26      -2.8072      1.00000
     27      -2.6928      1.00000
     28      -2.5899      1.00000
     29      -2.4902      1.00000
     30      -2.3546      1.00000
     31      -1.9304      1.00000
     32      -1.8286      1.00000
     33      -1.4652      1.00000
     34      -1.3684      1.00000
     35      -1.2158      1.00000
     36      -1.0790      1.00000
     37      -0.7825      1.00000
     38      -0.7314      1.00000
     39      -0.6821      1.00000
     40      -0.6710      1.00000
     41       2.1750      0.00000
     42       2.2366      0.00000
     43       2.6696      0.00000
     44       2.6767      0.00000
     45       2.9380      0.00000
     46       2.9927      0.00000
     47       3.1511      0.00000
     48       3.1947      0.00000
     49       3.4553      0.00000
     50       3.4970      0.00000
     51       3.7635      0.00000
     52       3.8031      0.00000
     53       3.9268      0.00000
     54       4.0911      0.00000
     55       4.3182      0.00000
     56       4.3914      0.00000

 k-point    17 :       0.0000    0.0000    0.4000
  band No.  band energies     occupation 
      1     -17.8369      1.00000
      2     -17.7242      1.00000
      3     -16.7820      1.00000
      4     -16.7022      1.00000
      5     -16.6405      1.00000
      6     -16.5768      1.00000
      7     -16.4721      1.00000
      8     -16.4399      1.00000
      9     -16.2843      1.00000
     10     -16.2476      1.00000
     11      -4.8004      1.00000
     12      -4.6455      1.00000
     13      -4.6190      1.00000
     14      -4.6097      1.00000
     15      -4.6029      1.00000
     16      -4.4949      1.00000
     17      -4.1466      1.00000
     18      -4.1369      1.00000
     19      -3.8332      1.00000
     20      -3.7152      1.00000
     21      -3.6395      1.00000
     22      -2.9352      1.00000
     23      -2.8554      1.00000
     24      -2.6920      1.00000
     25      -2.5878      1.00000
     26      -2.1386      1.00000
     27      -2.0799      1.00000
     28      -1.8959      1.00000
     29      -1.8813      1.00000
     30      -1.7269      1.00000
     31      -1.6364      1.00000
     32      -1.5926      1.00000
     33      -1.3315      1.00000
     34      -1.3221      1.00000
     35      -1.2214      1.00000
     36      -1.1516      1.00000
     37      -1.0407      1.00000
     38      -0.7454      1.00000
     39      -0.6469      1.00000
     40      -0.4847      1.00000
     41       1.8440      0.00000
     42       1.9112      0.00000
     43       2.8744      0.00000
     44       2.9469      0.00000
     45       3.0621      0.00000
     46       3.1033      0.00000
     47       3.1294      0.00000
     48       3.4909      0.00000
     49       3.6312      0.00000
     50       3.8972      0.00000
     51       3.9180      0.00000
     52       4.0804      0.00000
     53       4.2265      0.00000
     54       4.2822      0.00000
     55       4.5391      0.00000
     56       4.6606      0.00000

 k-point    18 :       0.1429    0.0000    0.4000
  band No.  band energies     occupation 
      1     -17.7240      1.00000
      2     -17.6097      1.00000
      3     -16.7375      1.00000
      4     -16.6671      1.00000
      5     -16.6417      1.00000
      6     -16.5676      1.00000
      7     -16.4554      1.00000
      8     -16.4232      1.00000
      9     -16.2856      1.00000
     10     -16.2503      1.00000
     11      -4.9718      1.00000
     12      -4.9105      1.00000
     13      -4.6469      1.00000
     14      -4.5449      1.00000
     15      -4.4952      1.00000
     16      -4.4384      1.00000
     17      -4.1306      1.00000
     18      -4.0965      1.00000
     19      -3.7770      1.00000
     20      -3.7143      1.00000
     21      -3.6158      1.00000
     22      -3.3444      1.00000
     23      -3.1791      1.00000
     24      -2.6830      1.00000
     25      -2.6715      1.00000
     26      -2.4502      1.00000
     27      -2.0903      1.00000
     28      -1.8815      1.00000
     29      -1.8747      1.00000
     30      -1.7264      1.00000
     31      -1.7255      1.00000
     32      -1.6109      1.00000
     33      -1.5497      1.00000
     34      -1.4698      1.00000
     35      -0.8883      1.00000
     36      -0.8849      1.00000
     37      -0.8598      1.00000
     38      -0.7400      1.00000
     39      -0.6124      1.00000
     40      -0.4803      1.00000
     41       1.9202      0.00000
     42       1.9858      0.00000
     43       2.7711      0.00000
     44       2.9444      0.00000
     45       3.0837      0.00000
     46       3.1335      0.00000
     47       3.1728      0.00000
     48       3.3953      0.00000
     49       3.4100      0.00000
     50       3.4557      0.00000
     51       3.6089      0.00000
     52       3.6607      0.00000
     53       4.1435      0.00000
     54       4.6678      0.00000
     55       4.8655      0.00000
     56       4.9446      0.00000

 k-point    19 :       0.2857    0.0000    0.4000
  band No.  band energies     occupation 
      1     -17.4308      1.00000
      2     -17.3124      1.00000
      3     -16.6957      1.00000
      4     -16.6224      1.00000
      5     -16.6187      1.00000
      6     -16.5476      1.00000
      7     -16.4122      1.00000
      8     -16.3803      1.00000
      9     -16.2939      1.00000
     10     -16.2621      1.00000
     11      -5.1688      1.00000
     12      -5.1668      1.00000
     13      -4.5756      1.00000
     14      -4.4915      1.00000
     15      -4.4106      1.00000
     16      -4.3463      1.00000
     17      -4.0820      1.00000
     18      -3.9662      1.00000
     19      -3.9055      1.00000
     20      -3.8552      1.00000
     21      -3.7537      1.00000
     22      -3.5639      1.00000
     23      -3.4278      1.00000
     24      -2.9464      1.00000
     25      -2.9073      1.00000
     26      -2.8144      1.00000
     27      -2.5991      1.00000
     28      -2.4724      1.00000
     29      -2.4574      1.00000
     30      -1.9885      1.00000
     31      -1.7340      1.00000
     32      -1.5212      1.00000
     33      -1.3395      1.00000
     34      -1.3276      1.00000
     35      -0.8374      1.00000
     36      -0.6349      1.00000
     37      -0.6178      1.00000
     38      -0.5394      1.00000
     39      -0.4699      1.00000
     40      -0.4500      1.00000
     41       2.0275      0.00000
     42       2.1700      0.00000
     43       2.6978      0.00000
     44       2.8277      0.00000
     45       2.9618      0.00000
     46       3.1603      0.00000
     47       3.1686      0.00000
     48       3.1888      0.00000
     49       3.4179      0.00000
     50       3.4432      0.00000
     51       3.4821      0.00000
     52       3.6837      0.00000
     53       4.0859      0.00000
     54       4.8124      0.00000
     55       4.9540      0.00000
     56       4.9849      0.00000

 k-point    20 :       0.4286    0.0000    0.4000
  band No.  band energies     occupation 
      1     -17.0798      1.00000
      2     -16.9577      1.00000
      3     -16.8130      1.00000
      4     -16.6993      1.00000
      5     -16.5553      1.00000
      6     -16.5360      1.00000
      7     -16.3602      1.00000
      8     -16.3286      1.00000
      9     -16.3178      1.00000
     10     -16.2872      1.00000
     11      -5.0773      1.00000
     12      -4.9915      1.00000
     13      -4.6689      1.00000
     14      -4.5312      1.00000
     15      -4.5037      1.00000
     16      -4.3765      1.00000
     17      -4.2133      1.00000
     18      -4.0175      1.00000
     19      -3.9392      1.00000
     20      -3.8558      1.00000
     21      -3.6702      1.00000
     22      -3.6307      1.00000
     23      -3.6061      1.00000
     24      -3.2904      1.00000
     25      -3.2158      1.00000
     26      -3.1972      1.00000
     27      -2.9662      1.00000
     28      -2.7268      1.00000
     29      -2.7129      1.00000
     30      -2.3400      1.00000
     31      -1.5844      1.00000
     32      -1.5341      1.00000
     33      -1.5302      1.00000
     34      -1.3240      1.00000
     35      -0.6604      1.00000
     36      -0.5657      1.00000
     37      -0.5594      1.00000
     38      -0.5192      1.00000
     39      -0.3787      1.00000
     40      -0.3724      1.00000
     41       2.1157      0.00000
     42       2.2129      0.00000
     43       2.7681      0.00000
     44       2.7715      0.00000
     45       3.1059      0.00000
     46       3.1564      0.00000
     47       3.1676      0.00000
     48       3.2283      0.00000
     49       3.5908      0.00000
     50       3.6466      0.00000
     51       3.6500      0.00000
     52       3.6964      0.00000
     53       4.2905      0.00000
     54       4.7300      0.00000
     55       4.7911      0.00000
     56       4.9629      0.00000

 k-point    21 :       0.0000    0.3333    0.4000
  band No.  band energies     occupation 
      1     -17.8112      1.00000
      2     -17.7552      1.00000
      3     -16.7537      1.00000
      4     -16.7144      1.00000
      5     -16.6297      1.00000
      6     -16.5972      1.00000
      7     -16.4665      1.00000
      8     -16.4503      1.00000
      9     -16.2733      1.00000
     10     -16.2552      1.00000
     11      -4.7810      1.00000
     12      -4.7197      1.00000
     13      -4.6080      1.00000
     14      -4.6046      1.00000
     15      -4.5572      1.00000
     16      -4.5105      1.00000
     17      -4.1145      1.00000
     18      -4.0542      1.00000
     19      -3.9366      1.00000
     20      -3.8682      1.00000
     21      -3.3808      1.00000
     22      -3.0353      1.00000
     23      -2.9171      1.00000
     24      -2.8774      1.00000
     25      -2.2213      1.00000
     26      -2.0743      1.00000
     27      -2.0388      1.00000
     28      -1.9505      1.00000
     29      -1.9485      1.00000
     30      -1.8232      1.00000
     31      -1.6943      1.00000
     32      -1.6525      1.00000
     33      -1.3287      1.00000
     34      -1.3239      1.00000
     35      -1.1405      1.00000
     36      -1.0860      1.00000
     37      -1.0196      1.00000
     38      -0.8368      1.00000
     39      -0.5922      1.00000
     40      -0.5178      1.00000
     41       1.8603      0.00000
     42       1.8939      0.00000
     43       2.9401      0.00000
     44       3.0163      0.00000
     45       3.0720      0.00000
     46       3.0925      0.00000
     47       3.1003      0.00000
     48       3.2789      0.00000
     49       3.8187      0.00000
     50       3.9000      0.00000
     51       3.9093      0.00000
     52       4.0740      0.00000
     53       4.1215      0.00000
     54       4.1934      0.00000
     55       4.6185      0.00000
     56       4.6567      0.00000

 k-point    22 :       0.1429    0.3333    0.4000
  band No.  band energies     occupation 
      1     -17.6981      1.00000
      2     -17.6414      1.00000
      3     -16.7081      1.00000
      4     -16.6747      1.00000
      5     -16.6315      1.00000
      6     -16.5928      1.00000
      7     -16.4497      1.00000
      8     -16.4336      1.00000
      9     -16.2748      1.00000
     10     -16.2574      1.00000
     11      -4.9611      1.00000
     12      -4.9308      1.00000
     13      -4.6271      1.00000
     14      -4.5817      1.00000
     15      -4.4713      1.00000
     16      -4.4450      1.00000
     17      -4.0942      1.00000
     18      -4.0096      1.00000
     19      -3.9138      1.00000
     20      -3.8269      1.00000
     21      -3.3881      1.00000
     22      -3.3127      1.00000
     23      -3.2274      1.00000
     24      -3.0512      1.00000
     25      -2.3306      1.00000
     26      -2.2963      1.00000
     27      -2.0817      1.00000
     28      -2.0404      1.00000
     29      -1.8574      1.00000
     30      -1.7768      1.00000
     31      -1.7160      1.00000
     32      -1.6442      1.00000
     33      -1.5454      1.00000
     34      -1.5217      1.00000
     35      -0.9051      1.00000
     36      -0.8986      1.00000
     37      -0.7950      1.00000
     38      -0.7445      1.00000
     39      -0.5684      1.00000
     40      -0.5049      1.00000
     41       1.9352      0.00000
     42       1.9684      0.00000
     43       2.8536      0.00000
     44       2.9873      0.00000
     45       3.0426      0.00000
     46       3.1419      0.00000
     47       3.1673      0.00000
     48       3.2774      0.00000
     49       3.4256      0.00000
     50       3.4425      0.00000
     51       3.6251      0.00000
     52       3.6529      0.00000
     53       4.2305      0.00000
     54       4.4488      0.00000
     55       4.8840      0.00000
     56       4.9489      0.00000

 k-point    23 :       0.2857    0.3333    0.4000
  band No.  band energies     occupation 
      1     -17.4048      1.00000
      2     -17.3463      1.00000
      3     -16.6620      1.00000
      4     -16.6279      1.00000
      5     -16.6119      1.00000
      6     -16.5744      1.00000
      7     -16.4064      1.00000
      8     -16.3909      1.00000
      9     -16.2834      1.00000
     10     -16.2680      1.00000
     11      -5.1720      1.00000
     12      -5.1706      1.00000
     13      -4.5640      1.00000
     14      -4.5274      1.00000
     15      -4.3692      1.00000
     16      -4.3327      1.00000
     17      -4.1037      1.00000
     18      -3.9714      1.00000
     19      -3.8967      1.00000
     20      -3.8421      1.00000
     21      -3.7734      1.00000
     22      -3.5541      1.00000
     23      -3.4276      1.00000
     24      -3.1937      1.00000
     25      -2.7361      1.00000
     26      -2.6607      1.00000
     27      -2.5558      1.00000
     28      -2.4312      1.00000
     29      -2.4156      1.00000
     30      -2.0872      1.00000
     31      -1.9087      1.00000
     32      -1.6641      1.00000
     33      -1.2576      1.00000
     34      -1.2079      1.00000
     35      -0.8406      1.00000
     36      -0.7319      1.00000
     37      -0.5504      1.00000
     38      -0.5166      1.00000
     39      -0.4606      1.00000
     40      -0.4529      1.00000
     41       2.0773      0.00000
     42       2.1511      0.00000
     43       2.7360      0.00000
     44       2.8022      0.00000
     45       3.0045      0.00000
     46       3.1072      0.00000
     47       3.2195      0.00000
     48       3.2294      0.00000
     49       3.3369      0.00000
     50       3.3914      0.00000
     51       3.5049      0.00000
     52       3.5861      0.00000
     53       4.2705      0.00000
     54       4.5970      0.00000
     55       4.8704      0.00000
     56       4.9902      0.00000

 k-point    24 :       0.4286    0.3333    0.4000
  band No.  band energies     occupation 
      1     -17.0571      1.00000
      2     -17.0001      1.00000
      3     -16.7733      1.00000
      4     -16.7205      1.00000
      5     -16.5499      1.00000
      6     -16.5402      1.00000
      7     -16.3555      1.00000
      8     -16.3425      1.00000
      9     -16.3042      1.00000
     10     -16.2917      1.00000
     11      -5.0636      1.00000
     12      -5.0227      1.00000
     13      -4.6183      1.00000
     14      -4.5486      1.00000
     15      -4.5006      1.00000
     16      -4.4443      1.00000
     17      -4.1733      1.00000
     18      -4.0846      1.00000
     19      -3.9080      1.00000
     20      -3.8618      1.00000
     21      -3.6418      1.00000
     22      -3.6119      1.00000
     23      -3.4813      1.00000
     24      -3.3628      1.00000
     25      -3.2783      1.00000
     26      -3.1829      1.00000
     27      -2.9701      1.00000
     28      -2.7590      1.00000
     29      -2.5499      1.00000
     30      -2.3182      1.00000
     31      -1.9178      1.00000
     32      -1.7757      1.00000
     33      -1.1665      1.00000
     34      -1.1555      1.00000
     35      -0.7810      1.00000
     36      -0.7309      1.00000
     37      -0.4595      1.00000
     38      -0.4388      1.00000
     39      -0.3836      1.00000
     40      -0.3764      1.00000
     41       2.1845      0.00000
     42       2.2392      0.00000
     43       2.7413      0.00000
     44       2.7485      0.00000
     45       3.0963      0.00000
     46       3.1168      0.00000
     47       3.2227      0.00000
     48       3.2869      0.00000
     49       3.4753      0.00000
     50       3.4895      0.00000
     51       3.7161      0.00000
     52       3.7523      0.00000
     53       4.3978      0.00000
     54       4.5965      0.00000
     55       4.8314      0.00000
     56       4.9191      0.00000


--------------------------------------------------------------------------------------------------------


 soft charge-density along one line, spin component           1
         0         1         2         3         4         5         6         7         8         9
 total charge-density along one line
 
 soft charge-density along one line, spin component           2
         0         1         2         3         4         5         6         7         8         9
 total charge-density along one line
 
 pseudopotential strength for first ion, spin component:           1
 -4.617   0.000   0.000   0.054   0.000  -4.960   0.000   0.000
  0.000  -4.927   0.054  -0.000   0.086   0.000  -5.285   0.055
  0.000   0.054  -5.698   0.000  -0.020   0.000   0.055  -6.076
  0.054  -0.000   0.000  -4.897   0.000   0.056  -0.000   0.000
  0.000   0.086  -0.020   0.000  -5.262   0.000   0.088  -0.021
 -4.960   0.000   0.000   0.056   0.000  -5.247   0.000   0.000
  0.000  -5.285   0.055  -0.000   0.088   0.000  -5.593   0.056
  0.000   0.055  -6.076   0.000  -0.021   0.000   0.056  -6.410
  0.056  -0.000   0.000  -5.254   0.000   0.057  -0.000   0.000
  0.000   0.088  -0.021   0.000  -5.622   0.000   0.091  -0.022
  0.000  -0.000  -0.022  -0.000   0.001   0.000  -0.000  -0.019
 -0.000  -0.000   0.061   0.000  -0.003  -0.000  -0.000   0.056
 -0.000   0.050   0.004   0.000   0.015  -0.000   0.048   0.004
  0.000  -0.007   0.110  -0.000   0.001   0.000  -0.007   0.111
  0.001   0.000  -0.000   0.052  -0.000   0.001   0.000   0.000
  0.000  -0.079  -0.007  -0.000  -0.017   0.000  -0.077  -0.007
 -0.000   0.011  -0.124   0.000  -0.001  -0.000   0.011  -0.127
  0.007  -0.000  -0.000  -0.081  -0.000   0.006  -0.000  -0.000
 pseudopotential strength for first ion, spin component:           2
 -4.617   0.000  -0.000   0.054   0.000  -4.960   0.000  -0.000
  0.000  -4.927   0.054  -0.000   0.086   0.000  -5.285   0.055
 -0.000   0.054  -5.698  -0.000  -0.020  -0.000   0.055  -6.076
  0.054  -0.000  -0.000  -4.897   0.000   0.056  -0.000  -0.000
  0.000   0.086  -0.020   0.000  -5.262   0.000   0.088  -0.021
 -4.960   0.000  -0.000   0.056   0.000  -5.247   0.000  -0.000
  0.000  -5.285   0.055  -0.000   0.088   0.000  -5.593   0.056
 -0.000   0.055  -6.076  -0.000  -0.021  -0.000   0.056  -6.410
  0.056  -0.000  -0.000  -5.254   0.000   0.057  -0.000  -0.000
  0.000   0.088  -0.021   0.000  -5.622   0.000   0.091  -0.022
 -0.000  -0.000  -0.022  -0.000   0.001  -0.000  -0.000  -0.019
  0.000  -0.000   0.061   0.000  -0.003   0.000  -0.000   0.056
  0.000   0.050   0.004  -0.000   0.015   0.000   0.048   0.004
 -0.000  -0.007   0.110  -0.000   0.001  -0.000  -0.007   0.111
  0.001  -0.000  -0.000   0.052  -0.000   0.001  -0.000  -0.000
 -0.000  -0.079  -0.007   0.000  -0.017   0.000  -0.077  -0.007
  0.000   0.011  -0.124  -0.000  -0.001   0.000   0.011  -0.127
  0.007   0.000   0.000  -0.081  -0.000   0.006   0.000   0.000
 total augmentation occupancy for first ion, spin component:           1
  1.079  -0.000  -0.000  -0.605   0.000  -1.512   0.000   0.000   0.704   0.000   0.000   0.000  -0.000   0.000  -0.373   0.000
 -0.000   1.688  -0.769   0.000  -1.156  -0.000  -2.462   0.886   0.000   1.371  -0.106  -0.004   0.508   0.184   0.000   0.047
  0.000  -0.769  11.050   0.000   0.246  -0.000   0.897 -13.130  -0.000  -0.281  -0.964  -0.061  -0.063  -2.103  -0.000  -0.003
 -0.605   0.000   0.000   1.346   0.000   0.709   0.000  -0.000  -2.041   0.000   0.000  -0.000   0.000   0.000   0.406   0.000
  0.000  -1.156   0.246  -0.000   5.705  -0.000   1.376  -0.280   0.000  -7.129   0.149   0.011  -0.635  -0.053   0.000  -0.044
 -1.512  -0.000   0.000   0.709  -0.000   2.340   0.000   0.000  -0.832   0.000   0.000   0.000   0.000   0.000   0.463   0.000
  0.000  -2.462   0.897   0.000   1.376   0.000   3.934  -1.030   0.000  -1.623   0.121   0.006  -0.544  -0.225   0.000  -0.054
 -0.000   0.886 -13.130  -0.000  -0.280  -0.000  -1.030  16.273   0.000   0.326   1.192   0.051   0.090   2.510   0.000   0.003
  0.704   0.000   0.000  -2.041  -0.000  -0.832   0.000   0.000   3.419  -0.000  -0.000   0.000   0.000   0.000  -0.430   0.000
  0.000   1.371  -0.281  -0.000  -7.129   0.000  -1.623   0.326  -0.000   9.339  -0.181  -0.011   0.784   0.056   0.000   0.047
  0.000  -0.106  -0.964  -0.000   0.149   0.000   0.121   1.192  -0.000  -0.181   2.309   0.090  -0.131   0.294   0.000  -0.001
  0.000  -0.004  -0.061  -0.000   0.011   0.000   0.006   0.051   0.000  -0.011   0.090   0.009  -0.004   0.012  -0.000  -0.000
 -0.000   0.508  -0.063   0.000  -0.635   0.000  -0.544   0.090   0.000   0.784  -0.131  -0.004   0.681   0.007   0.000   0.033
  0.000   0.184  -2.103   0.000  -0.053   0.000  -0.225   2.510   0.000   0.056   0.294   0.012   0.007   0.598   0.000   0.001
 -0.373   0.000   0.000   0.406  -0.000   0.463  -0.000   0.000  -0.430   0.000  -0.000   0.000   0.000   0.000   0.663   0.000
  0.000   0.047  -0.003   0.000  -0.044   0.000  -0.054   0.003   0.000   0.047  -0.001  -0.000   0.033   0.001   0.000   0.003
  0.000   0.006  -0.082   0.000  -0.002   0.000  -0.006   0.038   0.000   0.002  -0.030   0.002   0.001   0.012   0.000  -0.000
 -0.034   0.000   0.000   0.042   0.000   0.038   0.000   0.000  -0.050   0.000   0.000   0.000   0.000   0.000   0.033   0.000
 total augmentation occupancy for first ion, spin component:           2
 -0.000   0.000  -0.000   0.000  -0.000   0.000   0.000  -0.000  -0.000   0.000   0.000   0.000  -0.000  -0.000   0.000   0.000
  0.000  -0.000   0.000   0.000   0.000   0.000   0.000  -0.000   0.000  -0.000   0.000   0.000   0.000  -0.000  -0.000  -0.000
 -0.000   0.000  -0.000   0.000  -0.000   0.000  -0.000   0.000   0.000   0.000   0.000   0.000   0.000   0.000   0.000  -0.000
  0.000   0.000   0.000  -0.000   0.000  -0.000   0.000   0.000   0.000   0.000   0.000   0.000  -0.000   0.000   0.000   0.000
 -0.000   0.000  -0.000   0.000  -0.000   0.000  -0.000   0.000   0.000   0.000  -0.000   0.000   0.000   0.000   0.000  -0.000
  0.000   0.000   0.000  -0.000   0.000  -0.000   0.000   0.000   0.000  -0.000   0.000  -0.000   0.000   0.000  -0.000   0.000
  0.000   0.000  -0.000   0.000  -0.000   0.000  -0.000   0.000  -0.000   0.000  -0.000  -0.000  -0.000   0.000  -0.000   0.000
 -0.000  -0.000   0.000   0.000   0.000   0.000   0.000  -0.000   0.000   0.000  -0.000   0.000  -0.000  -0.000   0.000  -0.000
 -0.000   0.000   0.000   0.000   0.000   0.000  -0.000   0.000  -0.000   0.000   0.000   0.000   0.000   0.000  -0.000  -0.000
  0.000  -0.000   0.000   0.000   0.000  -0.000   0.000   0.000   0.000  -0.000   0.000  -0.000  -0.000  -0.000  -0.000   0.000
  0.000   0.000   0.000   0.000  -0.000   0.000  -0.000  -0.000   0.000   0.000  -0.000  -0.000   0.000  -0.000   0.000   0.000
  0.000   0.000   0.000   0.000   0.000  -0.000  -0.000   0.000   0.000  -0.000  -0.000   0.000   0.000   0.000   0.000  -0.000
 -0.000   0.000   0.000  -0.000   0.000   0.000  -0.000  -0.000   0.000  -0.000   0.000   0.000  -0.000  -0.000   0.000   0.000
 -0.000  -0.000   0.000   0.000   0.000   0.000   0.000  -0.000   0.000  -0.000  -0.000   0.000  -0.000   0.000   0.000  -0.000
  0.000  -0.000   0.000   0.000   0.000  -0.000  -0.000   0.000  -0.000  -0.000   0.000   0.000   0.000   0.000   0.000   0.000
  0.000  -0.000  -0.000   0.000  -0.000   0.000   0.000  -0.000  -0.000   0.000   0.000  -0.000   0.000  -0.000   0.000   0.000
  0.000   0.000  -0.000   0.000   0.000  -0.000  -0.000   0.000   0.000  -0.000   0.000   0.000  -0.000   0.000   0.000  -0.000
  0.000   0.000   0.000  -0.000   0.000  -0.000  -0.000   0.000   0.000   0.000   0.000   0.000   0.000   0.000   0.000   0.000


------------------------ aborting loop because EDIFF is reached ----------------------------------------





 total charge

# of ion       s       p       d       tot
------------------------------------------
    1        0.644   1.143   3.857   5.643
    2        0.644   1.143   3.857   5.643
    3        0.644   1.143   3.857   5.643
    4        0.644   1.143   3.857   5.643
    5        1.602   3.324   0.000   4.926
    6        1.602   3.324   0.000   4.926
    7        1.602   3.324   0.000   4.926
    8        1.602   3.324   0.000   4.926
    9        1.566   3.473   0.000   5.039
   10        1.566   3.473   0.000   5.039
   11        1.566   3.473   0.000   5.039
   12        1.566   3.473   0.000   5.039
   13        1.576   3.437   0.000   5.013
   14        1.576   3.437   0.000   5.013
--------------------------------------------------
tot         18.399  38.636  15.426  72.462



 magnetization (x)

# of ion       s       p       d       tot
------------------------------------------
    1       -0.000  -0.000  -0.000  -0.000
    2       -0.000  -0.000  -0.000  -0.000
    3       -0.000  -0.000  -0.000  -0.000
    4       -0.000  -0.000  -0.000  -0.000
    5       -0.000   0.000   0.000   0.000
    6       -0.000   0.000   0.000   0.000
    7       -0.000   0.000   0.000   0.000
    8       -0.000   0.000   0.000   0.000
    9       -0.000   0.000   0.000   0.000
   10       -0.000   0.000   0.000   0.000
   11       -0.000   0.000   0.000   0.000
   12       -0.000   0.000   0.000   0.000
   13       -0.000   0.000   0.000   0.000
   14       -0.000   0.000   0.000   0.000
--------------------------------------------------
tot         -0.000   0.000  -0.000  -0.000
 
    CHARGE:  cpu time      0.0766: real time      0.0768
    FORLOC:  cpu time      0.0014: real time      0.0032
    FORNL :  cpu time      0.3207: real time      0.3252
    STRESS:  cpu time      0.4497: real time      0.4541
    FORCOR:  cpu time      0.0273: real time      0.0282
    FORHAR:  cpu time      0.0041: real time      0.0059
    MIXING:  cpu time      0.0013: real time      0.0013
    OFIELD:  cpu time      0.0002: real time      0.0022

 ---------------------------------------------------------------------------------------------

         DFTD3 V3.0 Rev 1        
 IVDW         = 11
 DF pbe       
 parameters
 VDW_S6       =    1.0000
 VDW_S8       =    0.7220
 VDW_SR       =    1.2170
 rs18     =    1.0000
 alpha6   =   14.0000
 alpha8   =   16.0000
 k1-k3    =   16.0000    1.3333   -4.0000
 VDW_RADIUS   =   50.2022 A
 VDW_CNRADIUS =   21.1671 A
 Edisp (eV)   -1.65451

 E6    (eV) :    -0.7721
 E8    (eV) :    -0.8824
 % E8        : 53.33
    FORVDW:  cpu time      0.0856: real time      0.1141

  FORCE on cell =-STRESS in cart. coord.  units (eV):
  Direction    XX          YY          ZZ          XY          YZ          ZX
  --------------------------------------------------------------------------------------
  Alpha Z   208.84954   208.84954   208.84954
  Ewald   -1050.99771 -1104.36266 -1244.99613    -0.00000     0.00005    -0.00000
  Hartree   648.15809   560.08815   498.95752    -0.00000    -0.00000    -0.00000
  E(xc)    -386.44334  -387.02457  -393.43891    -0.00000     0.00000    -0.00000
  Local    -786.12754  -645.63566  -448.58313     0.00000    -0.00002     0.00000
  n-local  -213.33339  -213.15500  -221.53534     0.01955     0.00304    -0.61202
  augment   134.04633   134.57352   141.05102    -0.00000    -0.00000    -0.00000
  Kinetic  1447.39099  1448.26647  1461.65766     0.01563    -0.03476    -0.35117
  Fock        0.00000     0.00000     0.00000     0.00000     0.00000     0.00000
  vdW        -1.53687    -1.59634    -1.95409     0.00000     0.00000     0.00000
  -------------------------------------------------------------------------------------
  Total       0.00609     0.00344     0.00813     0.00000     0.00000     0.00000
  in kB       0.05311     0.02999     0.07093     0.00000     0.00000     0.00000
  external pressure =        0.05 kB  Pullay stress =        0.00 kB


 VOLUME and BASIS-vectors are now :
 -----------------------------------------------------------------------------
  energy-cutoff  :      600.00
  volume of cell :      183.70
      direct lattice vectors                 reciprocal lattice vectors
     3.609240018  0.000000000  0.000000000     0.277066639  0.000000000  0.000000000
     0.000000000 11.577544551  0.000000000     0.000000000  0.086374101  0.000000000
     0.000000000  0.000000000  4.396156302     0.000000000  0.000000000  0.227471439

  length of vectors
     3.609240018 11.577544551  4.396156302     0.277066639  0.086374101  0.227471439


 FORCES acting on ions
    electron-ion (+dipol)            ewald-force                    non-local-force                 convergence-correction
 -----------------------------------------------------------------------------------------------
   0.301E-14 0.434E+02 0.240E+02   0.168E-14 -.438E+02 -.249E+02   0.108E-16 0.499E+00 0.929E+00   0.264E-14 0.894E-05 0.130E-04
   -.390E-14 -.434E+02 0.240E+02   -.349E-14 0.438E+02 -.249E+02   0.110E-16 -.499E+00 0.929E+00   -.740E-15 -.931E-05 0.130E-04
   0.109E-13 0.434E+02 -.240E+02   0.118E-13 -.438E+02 0.249E+02   -.467E-17 0.499E+00 -.929E+00   -.456E-15 0.837E-05 -.130E-04
   0.177E-13 -.434E+02 -.240E+02   -.171E-13 0.438E+02 0.249E+02   -.430E-17 -.499E+00 -.929E+00   -.512E-14 -.799E-05 -.130E-04
   0.114E-14 0.664E+02 -.108E+03   0.101E-13 -.679E+02 0.135E+03   0.434E-17 0.149E+01 -.273E+02   0.186E-15 0.971E-05 -.105E-04
   0.372E-15 -.664E+02 -.108E+03   -.917E-14 0.679E+02 0.135E+03   -.495E-17 -.149E+01 -.273E+02   0.569E-14 -.102E-04 -.105E-04
   0.137E-12 0.664E+02 0.108E+03   0.370E-14 -.679E+02 -.135E+03   0.860E-17 0.149E+01 0.273E+02   -.770E-14 0.902E-05 0.105E-04
   0.146E-12 -.664E+02 0.108E+03   0.268E-15 0.679E+02 -.135E+03   -.777E-17 -.149E+01 0.273E+02   -.396E-14 -.852E-05 0.105E-04
   -.764E-14 -.939E+02 -.245E+02   0.407E-14 0.998E+02 0.314E+02   0.127E-17 -.584E+01 -.694E+01   0.918E-14 0.739E-06 0.550E-05
   -.399E-14 0.939E+02 -.245E+02   -.132E-13 -.998E+02 0.314E+02   0.161E-17 0.584E+01 -.694E+01   0.779E-15 -.393E-06 0.550E-05
   0.116E-12 -.939E+02 0.245E+02   0.155E-13 0.998E+02 -.314E+02   -.276E-17 -.584E+01 0.694E+01   -.666E-15 -.970E-06 -.550E-05
   0.110E-12 0.939E+02 0.245E+02   0.166E-13 -.998E+02 -.314E+02   -.319E-17 0.584E+01 0.694E+01   -.561E-14 0.631E-06 -.550E-05
   0.364E-15 -.706E-05 0.566E+02   -.911E-14 0.232E-04 -.699E+02   0.130E-19 0.978E-20 0.133E+02   0.460E-14 -.408E-06 0.121E-04
   0.132E-12 -.197E-05 -.566E+02   -.913E-14 0.847E-05 0.699E+02   -.126E-19 -.132E-19 -.133E+02   -.503E-14 0.403E-06 -.121E-04
 -----------------------------------------------------------------------------------------------
   0.659E-12 -.224E-03 0.313E-03   0.256E-14 -.568E-13 -.142E-13   0.998E-17 -.339E-20 0.178E-14   -.621E-14 0.636E-08 0.317E-08
 
 
 POSITION                                       TOTAL-FORCE (eV/Angst)
 -----------------------------------------------------------------------------------
      0.00000      1.72796      0.47508        -0.000000     -0.000137      0.000009
      0.00000      9.84958      0.47508        -0.000000      0.000137      0.000009
      1.80462      7.51673      3.92107         0.000000     -0.000137     -0.000009
      1.80462      4.06081      3.92107         0.000000      0.000137     -0.000009
      0.00000      1.67749      2.07962        -0.000000      0.000403      0.000510
      0.00000      9.90005      2.07962         0.000000     -0.000403      0.000510
      1.80462      7.46627      2.31654        -0.000000      0.000403     -0.000510
      1.80462      4.11128      2.31654         0.000000     -0.000403     -0.000510
      0.00000      3.69589      4.38542        -0.000000     -0.000006     -0.000337
      0.00000      7.88165      4.38542        -0.000000      0.000006     -0.000337
      1.80462      9.48467      0.01073         0.000000     -0.000006      0.000337
      1.80462      2.09288      0.01073         0.000000      0.000006      0.000337
      0.00000      0.00000      4.38754        -0.000000     -0.000000      0.000848
      1.80462      5.78877      0.00861         0.000000      0.000000     -0.000848
 -----------------------------------------------------------------------------------
    total drift:                                0.000000     -0.000224      0.000313


--------------------------------------------------------------------------------------------------------



  FREE ENERGIE OF THE ION-ELECTRON SYSTEM (eV)
  ---------------------------------------------------
  free  energy   TOTEN  =      -104.16061516 eV

  energy  without entropy=     -104.16061516  energy(sigma->0) =     -104.16061516
 


--------------------------------------------------------------------------------------------------------


    POTLOK:  cpu time      0.0328: real time      0.0342


--------------------------------------------------------------------------------------------------------


 stress matrix after NEB project (eV)
      0.00609      0.00000      0.00000
      0.00000      0.00344      0.00000
      0.00000      0.00000      0.00813
  FORCES: max atom, RMS     0.000848    0.000511
  FORCE total and by dimension    0.001913    0.000848
  Stress total and by dimension    0.010725    0.008132


--------------------------------------------------------------------------------------------------------


  
 reached required accuracy - stopping structural energy minimisation
     LOOP+:  cpu time     66.0680: real time     66.3810
    4ORBIT:  cpu time      0.0000: real time      0.0000



 total charge

# of ion       s       p       d       tot
------------------------------------------
    1        0.644   1.143   3.857   5.643
    2        0.644   1.143   3.857   5.643
    3        0.644   1.143   3.857   5.643
    4        0.644   1.143   3.857   5.643
    5        1.602   3.324   0.000   4.926
    6        1.602   3.324   0.000   4.926
    7        1.602   3.324   0.000   4.926
    8        1.602   3.324   0.000   4.926
    9        1.566   3.473   0.000   5.039
   10        1.566   3.473   0.000   5.039
   11        1.566   3.473   0.000   5.039
   12        1.566   3.473   0.000   5.039
   13        1.576   3.437   0.000   5.013
   14        1.576   3.437   0.000   5.013
--------------------------------------------------
tot         18.399  38.636  15.426  72.462



 magnetization (x)

# of ion       s       p       d       tot
------------------------------------------
    1       -0.000  -0.000  -0.000  -0.000
    2       -0.000  -0.000  -0.000  -0.000
    3       -0.000  -0.000  -0.000  -0.000
    4       -0.000  -0.000  -0.000  -0.000
    5       -0.000   0.000   0.000   0.000
    6       -0.000   0.000   0.000   0.000
    7       -0.000   0.000   0.000   0.000
    8       -0.000   0.000   0.000   0.000
    9       -0.000   0.000   0.000   0.000
   10       -0.000   0.000   0.000   0.000
   11       -0.000   0.000   0.000   0.000
   12       -0.000   0.000   0.000   0.000
   13       -0.000   0.000   0.000   0.000
   14       -0.000   0.000   0.000   0.000
--------------------------------------------------
tot         -0.000   0.000  -0.000  -0.000
 

 total amount of memory used by VASP MPI-rank0    48973. kBytes
=======================================================================

   base      :      30000. kBytes
   nonl-proj :       5537. kBytes
   fftplans  :       1351. kBytes
   grid      :       3379. kBytes
   one-center:         62. kBytes
   wavefun   :       8644. kBytes
 
  
  
 General timing and accounting informations for this job:
 ========================================================
  
                  Total CPU time used (sec):       69.378
                            User time (sec):       67.804
                          System time (sec):        1.575
                         Elapsed time (sec):       70.398
  
                   Maximum memory used (kb):       95508.
                   Average memory used (kb):          N/A
  
                          Minor page faults:        64217
                          Major page faults:            0
                 Voluntary context switches:         2908
