V4 O10                                  
   1.00000000000000     
     3.6092400175684305    0.0000000000000000    0.0000000000000000
     0.0000000000000000   11.5775445514865964    0.0000000000000000
     0.0000000000000000    0.0000000000000000    4.3961563015996417
   V    O 
     4    10
Direct
 -0.0000000000000000  0.1492511724748211  0.1080679117326462
 -0.0000000000000000  0.8507488425251837  0.1080679117326462
  0.5000000000000000  0.6492511574748163  0.8919321032673512
  0.5000000000000000  0.3507488425251838  0.8919321032673512
 -0.0000000000000000  0.1448919731812195  0.4730539312687693
 -0.0000000000000000  0.8551080418187784  0.4730539312687693
  0.5000000000000000  0.6448919581812216  0.5269460687312308
  0.5000000000000000  0.3551080418187779  0.5269460687312308
 -0.0000000000000000  0.3192295402478641  0.9975587424351365
  0.0000000000000000  0.6807704887521348  0.9975587424351365
  0.5000000000000000  0.8192295112478652  0.0024412575648635
  0.5000000000000000  0.1807704597521359  0.0024412575648635
  0.0000000000000000 -0.0000000000000000  0.9980407808870724
  0.5000000000000000  0.5000000000000000  0.0019592351129217
 
  0.00000000E+00  0.00000000E+00  0.00000000E+00
  0.00000000E+00  0.00000000E+00  0.00000000E+00
  0.00000000E+00  0.00000000E+00  0.00000000E+00
  0.00000000E+00  0.00000000E+00  0.00000000E+00
  0.00000000E+00  0.00000000E+00  0.00000000E+00
  0.00000000E+00  0.00000000E+00  0.00000000E+00
  0.00000000E+00  0.00000000E+00  0.00000000E+00
  0.00000000E+00  0.00000000E+00  0.00000000E+00
  0.00000000E+00  0.00000000E+00  0.00000000E+00
  0.00000000E+00  0.00000000E+00  0.00000000E+00
  0.00000000E+00  0.00000000E+00  0.00000000E+00
  0.00000000E+00  0.00000000E+00  0.00000000E+00
  0.00000000E+00  0.00000000E+00  0.00000000E+00
  0.00000000E+00  0.00000000E+00  0.00000000E+00
