Co3 H3 O6                               
   1.00000000000000     
     5.8688778877000001    0.0000000000000000    0.0000000000000000
    -2.9344396207000001    5.0825969517000003    0.0000000000000000
     0.0000000000000000    0.0000000000000000   20.0000000000000000
   Ni   O    H    Li
     8    16     8     1
Selective dynamics
Direct
  0.3333333429999996  0.1666666719999981  0.2183783500000018   F   F   F
  0.3333333429999996  0.6666666870000029  0.2183783500000018   F   F   F
  0.8333333730000021  0.1666666719999981  0.2183783500000018   F   F   F
  0.8333333730000021  0.6666666870000029  0.2183783500000018   F   F   F
  0.1644574393884568  0.3322287266942325  0.4428995995500529   T   T   T
  0.1666666570000004  0.8333333129999971  0.4461797308972137   T   T   T
  0.6677713033057699  0.3322287266942325  0.4428995995500529   T   T   T
  0.6677713033057699  0.8355425456115384  0.4428995995500529   T   T   T
  0.1666666719999981  0.3333333429999996  0.1691211159999995   F   F   F
  0.1666666570000004  0.8333333129999971  0.1691211159999995   F   F   F
  0.6666666870000029  0.3333333429999996  0.1691211159999995   F   F   F
  0.6666666870000029  0.8333333129999971  0.1691211159999995   F   F   F
  0.0000000000000000  0.0000000000000000  0.2676355540000017   F   F   F
  0.0000000000000000  0.4999999699999975  0.2676355540000017   F   F   F
  0.5000000000000000  0.0000000000000000  0.2676355540000017   F   F   F
  0.5000000000000000  0.4999999699999975  0.2676355540000017   F   F   F
  0.9903198781193865  0.0096801218806135  0.3973745442727648   T   T   T
  0.9903198781193865  0.4806397262387634  0.3973745442727648   T   T   T
  0.5193602437612341  0.0096801218806135  0.3973745442727648   T   T   T
  0.5000000000000000  0.4999999699999975  0.3974588545967279   T   T   T
  0.3462135699365945  0.1924271258731878  0.4918027502340934   T   T   T
  0.3462135699365945  0.6537864600634080  0.4918027502340934   T   T   T
  0.8333333730000021  0.1666666719999981  0.4890497114684607   T   T   T
  0.8075729191268124  0.6537864600634080  0.4918027502340934   T   T   T
  0.1666666719999981  0.3333333429999996  0.1091891749999974   F   F   F
  0.1666666570000004  0.8333333129999971  0.1091891749999974   F   F   F
  0.6666666870000029  0.3333333429999996  0.1091891749999974   F   F   F
  0.6666666870000029  0.8333333129999971  0.1091891749999974   F   F   F
  0.9947459115447614  0.0052540884552386  0.3183558422018393   T   T   T
  0.9947459115447614  0.4894917930895275  0.3183558422018393   T   T   T
  0.5105081769104700  0.0052540884552386  0.3183558422018393   T   T   T
  0.5000000000000000  0.4999999699999975  0.3178741352246703   T   T   T
  0.5000000000000000  0.5000000000000000  0.5438122129335454   T   T   T
 
  0.00000000E+00  0.00000000E+00  0.00000000E+00
  0.00000000E+00  0.00000000E+00  0.00000000E+00
  0.00000000E+00  0.00000000E+00  0.00000000E+00
  0.00000000E+00  0.00000000E+00  0.00000000E+00
  0.00000000E+00  0.00000000E+00  0.00000000E+00
  0.00000000E+00  0.00000000E+00  0.00000000E+00
  0.00000000E+00  0.00000000E+00  0.00000000E+00
  0.00000000E+00  0.00000000E+00  0.00000000E+00
  0.00000000E+00  0.00000000E+00  0.00000000E+00
  0.00000000E+00  0.00000000E+00  0.00000000E+00
  0.00000000E+00  0.00000000E+00  0.00000000E+00
  0.00000000E+00  0.00000000E+00  0.00000000E+00
  0.00000000E+00  0.00000000E+00  0.00000000E+00
  0.00000000E+00  0.00000000E+00  0.00000000E+00
  0.00000000E+00  0.00000000E+00  0.00000000E+00
  0.00000000E+00  0.00000000E+00  0.00000000E+00
  0.00000000E+00  0.00000000E+00  0.00000000E+00
  0.00000000E+00  0.00000000E+00  0.00000000E+00
  0.00000000E+00  0.00000000E+00  0.00000000E+00
  0.00000000E+00  0.00000000E+00  0.00000000E+00
  0.00000000E+00  0.00000000E+00  0.00000000E+00
  0.00000000E+00  0.00000000E+00  0.00000000E+00
  0.00000000E+00  0.00000000E+00  0.00000000E+00
  0.00000000E+00  0.00000000E+00  0.00000000E+00
  0.00000000E+00  0.00000000E+00  0.00000000E+00
  0.00000000E+00  0.00000000E+00  0.00000000E+00
  0.00000000E+00  0.00000000E+00  0.00000000E+00
  0.00000000E+00  0.00000000E+00  0.00000000E+00
  0.00000000E+00  0.00000000E+00  0.00000000E+00
  0.00000000E+00  0.00000000E+00  0.00000000E+00
  0.00000000E+00  0.00000000E+00  0.00000000E+00
  0.00000000E+00  0.00000000E+00  0.00000000E+00
  0.00000000E+00  0.00000000E+00  0.00000000E+00
