8                                       
   1.00000000000000     
    15.0000000000000000    0.0000000000000000    0.0000000000000000
     0.0000000000000000   15.0000000000000000    0.0000000000000000
     0.0000000000000000    0.0000000000000000   15.0000000000000000
   Li   O    H 
     1    12    24
Direct
  0.4833311840054790  0.4995630110542564  0.4984350824794532
  0.5576862927358945  0.5837123712012655  0.5687539381433950
  0.4298703758904949  0.4115771096119190  0.5830972140035797
  0.3855769742413173  0.5564861087771362  0.4297609015370796
  0.5613712649317009  0.4406741559325980  0.4108256157413805
  0.2826529946705136  0.5110876278284024  0.5720956421458965
  0.6400637857187590  0.6027640283611433  0.3955219064595710
  0.4620316755839227  0.2351025400374240  0.5338977673945564
  0.4760603726827668  0.7107458722630682  0.3891181178634397
  0.5806638308622780  0.4369174292939917  0.6764166166740253
  0.4163756396931717  0.4337074246034476  0.3037428132228968
  0.6353244887882994  0.3251686103840044  0.5258103793167308
  0.4936815601382278  0.7608565578521365  0.5660722966065848
  0.5374001940938697  0.6437353592230366  0.5862902322763688
  0.5770501484791382  0.5508039781453817  0.6223572602772833
  0.4275671423991980  0.3478838346070319  0.5657655156241290
  0.3676336324478910  0.4348522071450560  0.5891025659817757
  0.4066069209258458  0.6153356337511013  0.4079366124585064
  0.3844047437769618  0.5152900333974557  0.3771019526720352
  0.5975900531601468  0.3963421405335481  0.4455483617422189
  0.6003257363801779  0.4919415134123497  0.3937418651360645
  0.3049448757432316  0.5362149100303171  0.5149546203931692
  0.2203497119955244  0.4959556153079561  0.5629125208237298
  0.6350831672180774  0.6060320853435002  0.4607581074466935
  0.5922438843949109  0.6429276836804050  0.3755904544024986
  0.4414178736713765  0.2134245952990241  0.4754677173471151
  0.4524600102411469  0.1843982830608510  0.5744807807262688
  0.4583786809735599  0.7585579952793466  0.3488016350511387
  0.4815113336616434  0.7386694185849336  0.4491436957243096
  0.5865213518137153  0.4225933703369833  0.7393738676482613
  0.5178005156354004  0.4236460668897024  0.6589523325259847
  0.4744918634009636  0.4217147543502477  0.3336371675302914
  0.3851015246968998  0.3769302972082542  0.3011870807549926
  0.5866079016512629  0.2814271076892609  0.5298007127157973
  0.6315117446843246  0.3584421947636827  0.5822409262191499
  0.4361648127473643  0.7773810311852003  0.5931730345568837
  0.5323918578645674  0.8129970845745760  0.5765524623767249
 
  0.00000000E+00  0.00000000E+00  0.00000000E+00
  0.00000000E+00  0.00000000E+00  0.00000000E+00
  0.00000000E+00  0.00000000E+00  0.00000000E+00
  0.00000000E+00  0.00000000E+00  0.00000000E+00
  0.00000000E+00  0.00000000E+00  0.00000000E+00
  0.00000000E+00  0.00000000E+00  0.00000000E+00
  0.00000000E+00  0.00000000E+00  0.00000000E+00
  0.00000000E+00  0.00000000E+00  0.00000000E+00
  0.00000000E+00  0.00000000E+00  0.00000000E+00
  0.00000000E+00  0.00000000E+00  0.00000000E+00
  0.00000000E+00  0.00000000E+00  0.00000000E+00
  0.00000000E+00  0.00000000E+00  0.00000000E+00
  0.00000000E+00  0.00000000E+00  0.00000000E+00
  0.00000000E+00  0.00000000E+00  0.00000000E+00
  0.00000000E+00  0.00000000E+00  0.00000000E+00
  0.00000000E+00  0.00000000E+00  0.00000000E+00
  0.00000000E+00  0.00000000E+00  0.00000000E+00
  0.00000000E+00  0.00000000E+00  0.00000000E+00
  0.00000000E+00  0.00000000E+00  0.00000000E+00
  0.00000000E+00  0.00000000E+00  0.00000000E+00
  0.00000000E+00  0.00000000E+00  0.00000000E+00
  0.00000000E+00  0.00000000E+00  0.00000000E+00
  0.00000000E+00  0.00000000E+00  0.00000000E+00
  0.00000000E+00  0.00000000E+00  0.00000000E+00
  0.00000000E+00  0.00000000E+00  0.00000000E+00
  0.00000000E+00  0.00000000E+00  0.00000000E+00
  0.00000000E+00  0.00000000E+00  0.00000000E+00
  0.00000000E+00  0.00000000E+00  0.00000000E+00
  0.00000000E+00  0.00000000E+00  0.00000000E+00
  0.00000000E+00  0.00000000E+00  0.00000000E+00
  0.00000000E+00  0.00000000E+00  0.00000000E+00
  0.00000000E+00  0.00000000E+00  0.00000000E+00
  0.00000000E+00  0.00000000E+00  0.00000000E+00
  0.00000000E+00  0.00000000E+00  0.00000000E+00
  0.00000000E+00  0.00000000E+00  0.00000000E+00
  0.00000000E+00  0.00000000E+00  0.00000000E+00
  0.00000000E+00  0.00000000E+00  0.00000000E+00
