H8 Li O4                                
   1.00000000000000     
    15.0000000000000000    0.0000000000000000    0.0000000000000000
     0.0000000000000000   15.0000000000000000    0.0000000000000000
     0.0000000000000000    0.0000000000000000   15.0000000000000000
   Li   O    H 
     1     4     8
Direct
  0.5000000000000000  0.5000000000000000  0.5000000000000000
  0.5628864479254077  0.5803464177264672  0.5807001737632334
  0.4371135520745923  0.4196535822735328  0.5807001737632334
  0.4371135520745923  0.5803464177264672  0.4192998262367738
  0.5628864479254077  0.4196535822735328  0.4192998262367738
  0.5985422450314886  0.6296327135878386  0.5568330454033301
  0.5972365425834028  0.5561832399994557  0.6307684091786854
  0.4014577549685114  0.3703672864121614  0.5568330454033301
  0.4027634574165972  0.4438167600005443  0.6307684091786854
  0.4014577549685114  0.6296327135878386  0.4431669545966699
  0.4027634574165972  0.5561832399994557  0.3692315908213146
  0.5985422450314886  0.3703672864121614  0.4431669545966699
  0.5972365425834028  0.4438167600005443  0.3692315908213146
 