8                                       
   1.00000000000000     
    15.0000000000000000    0.0000000000000000    0.0000000000000000
     0.0000000000000000   15.0000000000000000    0.0000000000000000
     0.0000000000000000    0.0000000000000000   15.0000000000000000
   Li   O    H 
     1     8    16
Direct
  0.4848849310276009  0.4974379399354589  0.4899656027022132
  0.5803090148870709  0.5812754437045413  0.5356496309055245
  0.4433088279329667  0.4216714269752515  0.5913809331937330
  0.3808078202704124  0.5761087765474002  0.4561270288274883
  0.5340079891845164  0.4248825060610315  0.3961989514976594
  0.2828915598203068  0.4990698571642653  0.5935851413381101
  0.7102829509796464  0.4868552603954441  0.4492551369605664
  0.4941971506145180  0.2724763683980314  0.4886192390320545
  0.4710344296702971  0.7218038695318612  0.4929833841309161
  0.6351979197868758  0.5607490636751749  0.5037159975182064
  0.5934155376803218  0.5697256837238243  0.5991632683302797
  0.4781803119387433  0.4297560811362544  0.6461344090909762
  0.3804548980850768  0.4406328147059071  0.6045090602647107
  0.4049587047162646  0.6380108175225132  0.4684185802135090
  0.3643476853439580  0.5748748957779881  0.3933552650114365
  0.5265650502214712  0.3623180707686089  0.4172512247183491
  0.5985821830589586  0.4348530530602943  0.3931355347768744
  0.3010004610970682  0.5327957620903021  0.5398300570319137
  0.2272130671499042  0.4692030177422666  0.5789092916447984
  0.7281632276890520  0.4468039591668642  0.4985873447499998
  0.7663685376030642  0.5076633116269988  0.4225571569342677
  0.5451763355888701  0.2421789794895304  0.5151414015680729
  0.4721861472896407  0.3130548652681640  0.5356804873572898
  0.4558988213090132  0.7613943093843574  0.5421199380494812
  0.5224064890543829  0.6853839611476360  0.5135856951515336
 
  0.00000000E+00  0.00000000E+00  0.00000000E+00
  0.00000000E+00  0.00000000E+00  0.00000000E+00
  0.00000000E+00  0.00000000E+00  0.00000000E+00
  0.00000000E+00  0.00000000E+00  0.00000000E+00
  0.00000000E+00  0.00000000E+00  0.00000000E+00
  0.00000000E+00  0.00000000E+00  0.00000000E+00
  0.00000000E+00  0.00000000E+00  0.00000000E+00
  0.00000000E+00  0.00000000E+00  0.00000000E+00
  0.00000000E+00  0.00000000E+00  0.00000000E+00
  0.00000000E+00  0.00000000E+00  0.00000000E+00
  0.00000000E+00  0.00000000E+00  0.00000000E+00
  0.00000000E+00  0.00000000E+00  0.00000000E+00
  0.00000000E+00  0.00000000E+00  0.00000000E+00
  0.00000000E+00  0.00000000E+00  0.00000000E+00
  0.00000000E+00  0.00000000E+00  0.00000000E+00
  0.00000000E+00  0.00000000E+00  0.00000000E+00
  0.00000000E+00  0.00000000E+00  0.00000000E+00
  0.00000000E+00  0.00000000E+00  0.00000000E+00
  0.00000000E+00  0.00000000E+00  0.00000000E+00
  0.00000000E+00  0.00000000E+00  0.00000000E+00
  0.00000000E+00  0.00000000E+00  0.00000000E+00
  0.00000000E+00  0.00000000E+00  0.00000000E+00
  0.00000000E+00  0.00000000E+00  0.00000000E+00
  0.00000000E+00  0.00000000E+00  0.00000000E+00
  0.00000000E+00  0.00000000E+00  0.00000000E+00
