 C605437-FeHO2\(1\0\0)                  
   1.00000000000000     
     6.0608000755000004    0.0000000000000000    0.0000000000000000
     0.0000000000000000    4.5692000389000000    0.0000000000000000
     0.0000000000000000    0.0000000000000000   25.0000000000000000
   Fe   H    O    Li
     8     8    20     1
Selective dynamics
Direct
  0.1249999999278160  0.0603800005802384  0.3064775991599973   F   F   F
  0.6249999999690630  0.0603800005802384  0.3064775991599973   F   F   F
  0.3749999999484359  0.9396200180444652  0.4195312023200017   F   F   F
  0.8749999999896900  0.9396200180444652  0.4195312023200017   F   F   F
  0.1249999999278160  0.4366713697017630  0.5059449520644463   T   T   T
  0.6249999999690630  0.4430118999327917  0.5078839274951150   T   T   T
  0.3758166079649072  0.5781101511416367  0.6159987656238926   T   T   T
  0.8741833919732187  0.5781101511416367  0.6159987656238926   T   T   T
  0.3749999999484359  0.5961099863895924  0.3250016045600006   F   F   F
  0.8749999999896900  0.5961099863895924  0.3250016045600006   F   F   F
  0.1249999999278160  0.4038900136322923  0.4010071969199984   F   F   F
  0.6249999999690630  0.4038900136322923  0.4010071969199984   F   F   F
  0.3704565733678891  0.9135295077148342  0.5244314308697398   T   T   T
  0.8795434265702369  0.9135295077148342  0.5244314308697398   T   T   T
  0.1249999999278160  0.1050880873115858  0.6031672424327894   T   T   T
  0.6249999999690630  0.0571122886427062  0.6146129893270782   T   T   T
  0.1249999999278160  0.8165299893278899  0.2402224040000007   F   F   F
  0.6249999999690630  0.8165299893278899  0.2402224040000007   F   F   F
  0.3749999999484359  0.3165299892075168  0.2859208130799971   F   F   F
  0.8749999999896900  0.3165299892075168  0.2859208130799971   F   F   F
  0.8749999999896900  0.8034399747759338  0.3398384118000024   F   F   F
  0.3749999999484359  0.8034399747759338  0.3398384118000024   F   F   F
  0.6249999999690630  0.1965599954814437  0.3861703896400002   F   F   F
  0.1249999999278160  0.1965599954814437  0.3861703896400002   F   F   F
  0.1249999999278160  0.6834700108143679  0.4400880146000006   F   F   F
  0.6249999999690630  0.6834700108143679  0.4400880146000006   F   F   F
  0.8735242252085413  0.1833347398071439  0.4863432664034164   T   T   T
  0.3764757747295846  0.1833347398071439  0.4863432664034164   T   T   T
  0.3697255466388256  0.7024107350172386  0.5386529902145725   T   T   T
  0.8802744532993003  0.7024107350172386  0.5386529902145725   T   T   T
  0.1249999999278160  0.3034731512950728  0.5848194213589863   T   T   T
  0.6249999999690630  0.3398802530793503  0.5869721403249883   T   T   T
  0.1249999999278160  0.8063202586033427  0.6324047140886719   T   T   T
  0.6249999999690630  0.8561683194980958  0.6336214355702197   T   T   T
  0.3896253975073662  0.4423696751534933  0.6796059633286049   T   T   T
  0.8603746024307668  0.4423696751534933  0.6796059633286049   T   T   T
  0.6249999922143132  0.6956938358327349  0.7030188429445374   T   T   T
 
  0.00000000E+00  0.00000000E+00  0.00000000E+00
  0.00000000E+00  0.00000000E+00  0.00000000E+00
  0.00000000E+00  0.00000000E+00  0.00000000E+00
  0.00000000E+00  0.00000000E+00  0.00000000E+00
  0.00000000E+00  0.00000000E+00  0.00000000E+00
  0.00000000E+00  0.00000000E+00  0.00000000E+00
  0.00000000E+00  0.00000000E+00  0.00000000E+00
  0.00000000E+00  0.00000000E+00  0.00000000E+00
  0.00000000E+00  0.00000000E+00  0.00000000E+00
  0.00000000E+00  0.00000000E+00  0.00000000E+00
  0.00000000E+00  0.00000000E+00  0.00000000E+00
  0.00000000E+00  0.00000000E+00  0.00000000E+00
  0.00000000E+00  0.00000000E+00  0.00000000E+00
  0.00000000E+00  0.00000000E+00  0.00000000E+00
  0.00000000E+00  0.00000000E+00  0.00000000E+00
  0.00000000E+00  0.00000000E+00  0.00000000E+00
  0.00000000E+00  0.00000000E+00  0.00000000E+00
  0.00000000E+00  0.00000000E+00  0.00000000E+00
  0.00000000E+00  0.00000000E+00  0.00000000E+00
  0.00000000E+00  0.00000000E+00  0.00000000E+00
  0.00000000E+00  0.00000000E+00  0.00000000E+00
  0.00000000E+00  0.00000000E+00  0.00000000E+00
  0.00000000E+00  0.00000000E+00  0.00000000E+00
  0.00000000E+00  0.00000000E+00  0.00000000E+00
  0.00000000E+00  0.00000000E+00  0.00000000E+00
  0.00000000E+00  0.00000000E+00  0.00000000E+00
  0.00000000E+00  0.00000000E+00  0.00000000E+00
  0.00000000E+00  0.00000000E+00  0.00000000E+00
  0.00000000E+00  0.00000000E+00  0.00000000E+00
  0.00000000E+00  0.00000000E+00  0.00000000E+00
  0.00000000E+00  0.00000000E+00  0.00000000E+00
  0.00000000E+00  0.00000000E+00  0.00000000E+00
  0.00000000E+00  0.00000000E+00  0.00000000E+00
  0.00000000E+00  0.00000000E+00  0.00000000E+00
  0.00000000E+00  0.00000000E+00  0.00000000E+00
  0.00000000E+00  0.00000000E+00  0.00000000E+00
  0.00000000E+00  0.00000000E+00  0.00000000E+00
