 32_GeSe\(1\0\0)                        
   1.00000000000000     
     7.7589998245000000    0.0000000000000000    0.0000000000000000
     0.0000000000000000    9.0326004028000000    0.0000000000000000
     0.0000000000000000    0.0000000000000000   20.0000000000000000
   Ge   Se   Li
    16    16     1
Selective dynamics
Direct
  0.1250000000000000  0.0561599990000019  0.1163799990000030   F   F   F
  0.1250000000000000  0.5561599729999998  0.1163799990000030   F   F   F
  0.6250000000000000  0.0561599990000019  0.1163799990000030   F   F   F
  0.6250000000000000  0.5561599729999998  0.1163799990000030   F   F   F
  0.1208501848382753  0.2040979451756755  0.3902098764399184   T   T   T
  0.1270310039341851  0.7081319302210858  0.3939144341817453   T   T   T
  0.6291498151617247  0.2040979451756755  0.3902098764399184   T   T   T
  0.6229689960658149  0.7081319302210858  0.3939144341817453   T   T   T
  0.3750000000000000  0.3061600030000022  0.2572000030000012   F   F   F
  0.3750000000000000  0.8061599729999998  0.2572000030000012   F   F   F
  0.8750000000000000  0.3061600030000022  0.2572000030000012   F   F   F
  0.8750000000000000  0.8061599729999998  0.2572000030000012   F   F   F
  0.3750000000000000  0.4398155215435011  0.5270948345826767   T   T   T
  0.3750000000000000  0.9832349738475301  0.5278682827192611   T   T   T
  0.8750000000000000  0.4646528787124780  0.5303414739803358   T   T   T
  0.8750000000000000  0.9712164346070153  0.5351660415504043   T   T   T
  0.3750000000000000  0.0136638918716514  0.4021404874165313   T   T   T
  0.3750000000000000  0.5124237730725625  0.4052883595964403   T   T   T
  0.8750000000000000  0.0089237084607561  0.4077789246840311   T   T   T
  0.8750000000000000  0.5161658458434104  0.4056898896455863   T   T   T
  0.3750000000000000  0.2452100069999972  0.1304199989999972   F   F   F
  0.3750000000000000  0.7452099919999995  0.1304199989999972   F   F   F
  0.8750000000000000  0.2452100069999972  0.1304199989999972   F   F   F
  0.8750000000000000  0.7452099919999995  0.1304199989999972   F   F   F
  0.1223612704370964  0.2636370743948291  0.5205840915336850   T   T   T
  0.1258007257022342  0.7775674567239861  0.5243587792127897   T   T   T
  0.6276387295629036  0.2636370743948291  0.5205840915336850   T   T   T
  0.6241992742977658  0.7775674567239861  0.5243587792127897   T   T   T
  0.1250000000000000  0.4952099919999995  0.2431599940000027   F   F   F
  0.1250000000000000  0.9952099919999995  0.2431599940000027   F   F   F
  0.6250000000000000  0.4952099919999995  0.2431599940000027   F   F   F
  0.6250000000000000  0.9952099919999995  0.2431599940000027   F   F   F
  0.3749993640691329  0.6809637558069070  0.5931239645528308   T   T   T
 
  0.00000000E+00  0.00000000E+00  0.00000000E+00
  0.00000000E+00  0.00000000E+00  0.00000000E+00
  0.00000000E+00  0.00000000E+00  0.00000000E+00
  0.00000000E+00  0.00000000E+00  0.00000000E+00
  0.00000000E+00  0.00000000E+00  0.00000000E+00
  0.00000000E+00  0.00000000E+00  0.00000000E+00
  0.00000000E+00  0.00000000E+00  0.00000000E+00
  0.00000000E+00  0.00000000E+00  0.00000000E+00
  0.00000000E+00  0.00000000E+00  0.00000000E+00
  0.00000000E+00  0.00000000E+00  0.00000000E+00
  0.00000000E+00  0.00000000E+00  0.00000000E+00
  0.00000000E+00  0.00000000E+00  0.00000000E+00
  0.00000000E+00  0.00000000E+00  0.00000000E+00
  0.00000000E+00  0.00000000E+00  0.00000000E+00
  0.00000000E+00  0.00000000E+00  0.00000000E+00
  0.00000000E+00  0.00000000E+00  0.00000000E+00
  0.00000000E+00  0.00000000E+00  0.00000000E+00
  0.00000000E+00  0.00000000E+00  0.00000000E+00
  0.00000000E+00  0.00000000E+00  0.00000000E+00
  0.00000000E+00  0.00000000E+00  0.00000000E+00
  0.00000000E+00  0.00000000E+00  0.00000000E+00
  0.00000000E+00  0.00000000E+00  0.00000000E+00
  0.00000000E+00  0.00000000E+00  0.00000000E+00
  0.00000000E+00  0.00000000E+00  0.00000000E+00
  0.00000000E+00  0.00000000E+00  0.00000000E+00
  0.00000000E+00  0.00000000E+00  0.00000000E+00
  0.00000000E+00  0.00000000E+00  0.00000000E+00
  0.00000000E+00  0.00000000E+00  0.00000000E+00
  0.00000000E+00  0.00000000E+00  0.00000000E+00
  0.00000000E+00  0.00000000E+00  0.00000000E+00
  0.00000000E+00  0.00000000E+00  0.00000000E+00
  0.00000000E+00  0.00000000E+00  0.00000000E+00
  0.00000000E+00  0.00000000E+00  0.00000000E+00
