 50_SnS\(1\0\0)                         
   1.00000000000000     
     7.9858999252000000    0.0000000000000000    0.0000000000000000
     0.0000000000000000    8.8191995620999997    0.0000000000000000
     0.0000000000000000    0.0000000000000000   20.0000000000000000
   Sn   S    Li
    16    16     1
Selective dynamics
Direct
  0.1250000000000000  0.0608999990000001  0.1163600009999968   F   F   F
  0.1250000000000000  0.5608999729999979  0.1163600009999968   F   F   F
  0.6250000000000000  0.0608999990000001  0.1163600009999968   F   F   F
  0.6250000000000000  0.5608999729999979  0.1163600009999968   F   F   F
  0.1224753690401611  0.1919746410186681  0.3944207619060340   T   T   T
  0.1239863811330351  0.6933862871913574  0.3980378786256238   T   T   T
  0.6275294169904775  0.1919453065703574  0.3944205453854864   T   T   T
  0.6260430499862902  0.6934441484712046  0.3980473446634248   T   T   T
  0.3750000000000000  0.3109000030000004  0.2644099890000007   F   F   F
  0.3750000000000000  0.8108999729999979  0.2644099890000007   F   F   F
  0.8750000000000000  0.3109000030000004  0.2644099890000007   F   F   F
  0.8750000000000000  0.8108999729999979  0.2644099890000007   F   F   F
  0.3750092130549163  0.4356467820177267  0.5398164766808273   T   T   T
  0.3749836592047326  0.0266510872708866  0.5413561481946539   T   T   T
  0.8749879042240470  0.5031134438671437  0.5469481899092553   T   T   T
  0.8750095863024675  0.9542649430933429  0.5470598588317944   T   T   T
  0.1250000000000000  0.0082400000000007  0.2471099939999988   F   F   F
  0.1250000000000000  0.5082399850000030  0.2471099939999988   F   F   F
  0.6250000000000000  0.0082400000000007  0.2471099939999988   F   F   F
  0.6250000000000000  0.5082399850000030  0.2471099939999988   F   F   F
  0.1373080474502891  0.2340875651788717  0.5288735852800297   T   T   T
  0.1086361049494766  0.7328730016730699  0.5323246820039865   T   T   T
  0.6126904163898192  0.2340431474861512  0.5288787315990925   T   T   T
  0.6413728082754645  0.7329332326529517  0.5323315998459093   T   T   T
  0.3750000000000000  0.2582400140000018  0.1336500049999998   F   F   F
  0.3750000000000000  0.7582399850000030  0.1336500049999998   F   F   F
  0.8750000000000000  0.2582400140000018  0.1336500049999998   F   F   F
  0.8750000000000000  0.7582399850000030  0.1336500049999998   F   F   F
  0.3750360935481180  0.4900282949089648  0.4131302563509311   T   T   T
  0.3749923659446184  0.9871136881998471  0.4137331965932372   T   T   T
  0.8749977946718062  0.4860708167574365  0.4166915555008177   T   T   T
  0.8750241829008019  0.9902035492882870  0.4167705939582796   T   T   T
  0.3750101662810467  0.7295435526699043  0.5874320575416256   T   T   T
 
  0.00000000E+00  0.00000000E+00  0.00000000E+00
  0.00000000E+00  0.00000000E+00  0.00000000E+00
  0.00000000E+00  0.00000000E+00  0.00000000E+00
  0.00000000E+00  0.00000000E+00  0.00000000E+00
  0.00000000E+00  0.00000000E+00  0.00000000E+00
  0.00000000E+00  0.00000000E+00  0.00000000E+00
  0.00000000E+00  0.00000000E+00  0.00000000E+00
  0.00000000E+00  0.00000000E+00  0.00000000E+00
  0.00000000E+00  0.00000000E+00  0.00000000E+00
  0.00000000E+00  0.00000000E+00  0.00000000E+00
  0.00000000E+00  0.00000000E+00  0.00000000E+00
  0.00000000E+00  0.00000000E+00  0.00000000E+00
  0.00000000E+00  0.00000000E+00  0.00000000E+00
  0.00000000E+00  0.00000000E+00  0.00000000E+00
  0.00000000E+00  0.00000000E+00  0.00000000E+00
  0.00000000E+00  0.00000000E+00  0.00000000E+00
  0.00000000E+00  0.00000000E+00  0.00000000E+00
  0.00000000E+00  0.00000000E+00  0.00000000E+00
  0.00000000E+00  0.00000000E+00  0.00000000E+00
  0.00000000E+00  0.00000000E+00  0.00000000E+00
  0.00000000E+00  0.00000000E+00  0.00000000E+00
  0.00000000E+00  0.00000000E+00  0.00000000E+00
  0.00000000E+00  0.00000000E+00  0.00000000E+00
  0.00000000E+00  0.00000000E+00  0.00000000E+00
  0.00000000E+00  0.00000000E+00  0.00000000E+00
  0.00000000E+00  0.00000000E+00  0.00000000E+00
  0.00000000E+00  0.00000000E+00  0.00000000E+00
  0.00000000E+00  0.00000000E+00  0.00000000E+00
  0.00000000E+00  0.00000000E+00  0.00000000E+00
  0.00000000E+00  0.00000000E+00  0.00000000E+00
  0.00000000E+00  0.00000000E+00  0.00000000E+00
  0.00000000E+00  0.00000000E+00  0.00000000E+00
  0.00000000E+00  0.00000000E+00  0.00000000E+00
