V4 O10                                  
   1.00000000000000     
     3.6248425186910338    0.0000000000000000    0.0000000000000000
     0.0000000000000000   11.4424318134462588    0.0000000000000000
     0.0000000000000000    0.0000000000000000    4.8613385514279166
   V    O    Li
     4    10     1
Direct
  0.0000000000000000  0.1493643895445729  0.1179871686130838
  0.0000000000000000  0.8506356254554319  0.1179871686130838
  0.5000000000000000  0.6545778043697439  0.8972163924393328
  0.5000000000000000  0.3454221956302561  0.8972163924393328
  0.0000000000000000  0.1434282576037660  0.4473095990041145
  0.0000000000000000  0.8565717573962388  0.4473095990041145
  0.5000000000000000  0.6444703648272707  0.5593067808617107
  0.5000000000000000  0.3555296351727222  0.5593067808617107
  0.0000000000000000  0.3184550932206989  0.0135415281502205
  0.0000000000000000  0.6815449357793000  0.0135415281502205
  0.5000000000000000  0.8211718158121926  0.0133264499655183
  0.5000000000000000  0.1788281551878086  0.0133264499655183
  0.0000000000000000  0.0000000000000000  0.0031445215160275
  0.5000000000000000  0.5000000000000000  0.0077785656268858
  0.5000000000000000  0.5000000000000000  0.3917011207891008
 
  0.00000000E+00  0.00000000E+00  0.00000000E+00
  0.00000000E+00  0.00000000E+00  0.00000000E+00
  0.00000000E+00  0.00000000E+00  0.00000000E+00
  0.00000000E+00  0.00000000E+00  0.00000000E+00
  0.00000000E+00  0.00000000E+00  0.00000000E+00
  0.00000000E+00  0.00000000E+00  0.00000000E+00
  0.00000000E+00  0.00000000E+00  0.00000000E+00
  0.00000000E+00  0.00000000E+00  0.00000000E+00
  0.00000000E+00  0.00000000E+00  0.00000000E+00
  0.00000000E+00  0.00000000E+00  0.00000000E+00
  0.00000000E+00  0.00000000E+00  0.00000000E+00
  0.00000000E+00  0.00000000E+00  0.00000000E+00
  0.00000000E+00  0.00000000E+00  0.00000000E+00
  0.00000000E+00  0.00000000E+00  0.00000000E+00
  0.00000000E+00  0.00000000E+00  0.00000000E+00
