 Ga4 Se4                                
   1.00000000000000     
     7.6133594513000000    0.0000000000000000    0.0000000000000000
    -3.8066797256000000    6.5933626930000004    0.0000000000000000
     0.0000000000000000    0.0000000000000000   25.0000000000000000
   Ga   Se   Li
    16    16     1
Selective dynamics
Direct
  0.1666666570000004  0.3333333129999971  0.1120883079999970   F   F   F
  0.1666666719999981  0.8333333730000021  0.1120883079999970   F   F   F
  0.6666666870000029  0.3333333129999971  0.1120883079999970   F   F   F
  0.6666666870000029  0.8333333730000021  0.1120883079999970   F   F   F
  0.1666666570000004  0.3333333129999971  0.2100248489999998   F   F   F
  0.1666666719999981  0.8333333730000021  0.2100248489999998   F   F   F
  0.6666666870000029  0.3333333129999971  0.2100248489999998   F   F   F
  0.6666666870000029  0.8333333730000021  0.2100248489999998   F   F   F
  0.3352840740175651  0.1705681790351434  0.4330058598969302   T   T   T
  0.3352840740175651  0.6647158659824299  0.4330058598969302   T   T   T
  0.8333333129999971  0.1666666570000004  0.4319488144133956   T   T   T
  0.8294317909648541  0.6647158659824299  0.4330058598969302   T   T   T
  0.3331810967160820  0.1663622244321772  0.5316095958938760   T   T   T
  0.3331810967160820  0.6668188432839131  0.5316095958938760   T   T   T
  0.8333333129999971  0.1666666570000004  0.5335432993006179   T   T   T
  0.8336377455678203  0.6668188432839131  0.5316095958938760   T   T   T
  0.3333333129999971  0.1666666570000004  0.0653712530000021   F   F   F
  0.3333333129999971  0.6666666269999979  0.0653712530000021   F   F   F
  0.8333333129999971  0.1666666570000004  0.0653712530000021   F   F   F
  0.8333333129999971  0.6666666269999979  0.0653712530000021   F   F   F
  0.3333333129999971  0.1666666570000004  0.2567419109999989   F   F   F
  0.3333333129999971  0.6666666269999979  0.2567419109999989   F   F   F
  0.8333333129999971  0.1666666570000004  0.2567419109999989   F   F   F
  0.8333333129999971  0.6666666269999979  0.2567419109999989   F   F   F
  0.1711472496344442  0.3355736093172155  0.3854440187056554   T   T   T
  0.1666666719999981  0.8333333730000021  0.3885821471589281   T   T   T
  0.6644263906827845  0.3355736093172155  0.3854440187056554   T   T   T
  0.6644263906827845  0.8288527803655583  0.3854440187056554   T   T   T
  0.1762368039316016  0.3381183864658013  0.5819154722438356   T   T   T
  0.1666666719999981  0.8333333730000021  0.5792656979472497   T   T   T
  0.6618816135341987  0.3381183864658013  0.5819154722438356   T   T   T
  0.6618816135341987  0.8237632260684009  0.5819154722438356   T   T   T
  0.5000000005021903  0.5000000000000000  0.6376080615016591   T   T   T
 
  0.00000000E+00  0.00000000E+00  0.00000000E+00
  0.00000000E+00  0.00000000E+00  0.00000000E+00
  0.00000000E+00  0.00000000E+00  0.00000000E+00
  0.00000000E+00  0.00000000E+00  0.00000000E+00
  0.00000000E+00  0.00000000E+00  0.00000000E+00
  0.00000000E+00  0.00000000E+00  0.00000000E+00
  0.00000000E+00  0.00000000E+00  0.00000000E+00
  0.00000000E+00  0.00000000E+00  0.00000000E+00
  0.00000000E+00  0.00000000E+00  0.00000000E+00
  0.00000000E+00  0.00000000E+00  0.00000000E+00
  0.00000000E+00  0.00000000E+00  0.00000000E+00
  0.00000000E+00  0.00000000E+00  0.00000000E+00
  0.00000000E+00  0.00000000E+00  0.00000000E+00
  0.00000000E+00  0.00000000E+00  0.00000000E+00
  0.00000000E+00  0.00000000E+00  0.00000000E+00
  0.00000000E+00  0.00000000E+00  0.00000000E+00
  0.00000000E+00  0.00000000E+00  0.00000000E+00
  0.00000000E+00  0.00000000E+00  0.00000000E+00
  0.00000000E+00  0.00000000E+00  0.00000000E+00
  0.00000000E+00  0.00000000E+00  0.00000000E+00
  0.00000000E+00  0.00000000E+00  0.00000000E+00
  0.00000000E+00  0.00000000E+00  0.00000000E+00
  0.00000000E+00  0.00000000E+00  0.00000000E+00
  0.00000000E+00  0.00000000E+00  0.00000000E+00
  0.00000000E+00  0.00000000E+00  0.00000000E+00
  0.00000000E+00  0.00000000E+00  0.00000000E+00
  0.00000000E+00  0.00000000E+00  0.00000000E+00
  0.00000000E+00  0.00000000E+00  0.00000000E+00
  0.00000000E+00  0.00000000E+00  0.00000000E+00
  0.00000000E+00  0.00000000E+00  0.00000000E+00
  0.00000000E+00  0.00000000E+00  0.00000000E+00
  0.00000000E+00  0.00000000E+00  0.00000000E+00
  0.00000000E+00  0.00000000E+00  0.00000000E+00
