 Ga4 S4                                 
   1.00000000000000     
     7.2472057342999996    0.0000000000000000    0.0000000000000000
    -3.6236037029000001    6.2762637897999998    0.0000000000000000
     0.0000000000000000    0.0000000000000000   25.0000000000000000
   Ga   S    Li
    16    16     1
Selective dynamics
Direct
  0.1666666719999981  0.3333333429999996  0.1068576799999974   F   F   F
  0.1666666420000027  0.8333333129999971  0.1068576799999974   F   F   F
  0.6666666870000029  0.3333333429999996  0.1068576799999974   F   F   F
  0.6666666870000029  0.8333333129999971  0.1068576799999974   F   F   F
  0.1666666719999981  0.3333333429999996  0.2051274180000036   F   F   F
  0.1666666420000027  0.8333333129999971  0.2051274180000036   F   F   F
  0.6666666870000029  0.3333333429999996  0.2051274180000036   F   F   F
  0.6666666870000029  0.8333333129999971  0.2051274180000036   F   F   F
  0.3323578381234782  0.1647157072469554  0.4173892540310220   T   T   T
  0.3323578381234782  0.6676421018765168  0.4173892540310220   T   T   T
  0.8333332540000029  0.1666666570000004  0.4189008511391634   T   T   T
  0.8352842627530421  0.6676421018765168  0.4173892540310220   T   T   T
  0.3284699791859893  0.1569399893719847  0.5151542717148558   T   T   T
  0.3284699791859893  0.6715299608140057  0.5151542717148558   T   T   T
  0.8333332540000029  0.1666666570000004  0.5176484305921747   T   T   T
  0.8430599806280128  0.6715299608140057  0.5151542717148558   T   T   T
  0.3333333129999971  0.1666666570000004  0.0634030399999972   F   F   F
  0.3333333129999971  0.6666666269999979  0.0634030399999972   F   F   F
  0.8333332540000029  0.1666666570000004  0.0634030399999972   F   F   F
  0.8333333129999971  0.6666666269999979  0.0634030399999972   F   F   F
  0.3333333129999971  0.1666666570000004  0.2485820349999983   F   F   F
  0.3333333129999971  0.6666666269999979  0.2485820349999983   F   F   F
  0.8333332540000029  0.1666666570000004  0.2485820349999983   F   F   F
  0.8333333129999971  0.6666666269999979  0.2485820349999983   F   F   F
  0.1656810956269013  0.3328405548134512  0.3752061708057113   T   T   T
  0.1666666420000027  0.8333333129999971  0.3741264993473550   T   T   T
  0.6671594751865513  0.3328405548134512  0.3752061708057113   T   T   T
  0.6671594751865513  0.8343188893730940  0.3752061708057113   T   T   T
  0.1745137313591627  0.3372568726795819  0.5613521932707783   T   T   T
  0.1666666420000027  0.8333333129999971  0.5630704265461617   T   T   T
  0.6627431573204206  0.3372568726795819  0.5613521932707783   T   T   T
  0.6627431573204206  0.8254862536408325  0.5613521932707783   T   T   T
  0.4999999920598981  0.5000000000000000  0.6142293776956933   T   T   T
 
  0.00000000E+00  0.00000000E+00  0.00000000E+00
  0.00000000E+00  0.00000000E+00  0.00000000E+00
  0.00000000E+00  0.00000000E+00  0.00000000E+00
  0.00000000E+00  0.00000000E+00  0.00000000E+00
  0.00000000E+00  0.00000000E+00  0.00000000E+00
  0.00000000E+00  0.00000000E+00  0.00000000E+00
  0.00000000E+00  0.00000000E+00  0.00000000E+00
  0.00000000E+00  0.00000000E+00  0.00000000E+00
  0.00000000E+00  0.00000000E+00  0.00000000E+00
  0.00000000E+00  0.00000000E+00  0.00000000E+00
  0.00000000E+00  0.00000000E+00  0.00000000E+00
  0.00000000E+00  0.00000000E+00  0.00000000E+00
  0.00000000E+00  0.00000000E+00  0.00000000E+00
  0.00000000E+00  0.00000000E+00  0.00000000E+00
  0.00000000E+00  0.00000000E+00  0.00000000E+00
  0.00000000E+00  0.00000000E+00  0.00000000E+00
  0.00000000E+00  0.00000000E+00  0.00000000E+00
  0.00000000E+00  0.00000000E+00  0.00000000E+00
  0.00000000E+00  0.00000000E+00  0.00000000E+00
  0.00000000E+00  0.00000000E+00  0.00000000E+00
  0.00000000E+00  0.00000000E+00  0.00000000E+00
  0.00000000E+00  0.00000000E+00  0.00000000E+00
  0.00000000E+00  0.00000000E+00  0.00000000E+00
  0.00000000E+00  0.00000000E+00  0.00000000E+00
  0.00000000E+00  0.00000000E+00  0.00000000E+00
  0.00000000E+00  0.00000000E+00  0.00000000E+00
  0.00000000E+00  0.00000000E+00  0.00000000E+00
  0.00000000E+00  0.00000000E+00  0.00000000E+00
  0.00000000E+00  0.00000000E+00  0.00000000E+00
  0.00000000E+00  0.00000000E+00  0.00000000E+00
  0.00000000E+00  0.00000000E+00  0.00000000E+00
  0.00000000E+00  0.00000000E+00  0.00000000E+00
  0.00000000E+00  0.00000000E+00  0.00000000E+00
