 Mo2 Se4                                
   1.00000000000000     
     6.5814571381000002    0.0000000000000000    0.0000000000000000
    -3.2907293279999998    5.6997086372999997    0.0000000000000000
     0.0000000000000000    0.0000000000000000   25.0000000000000000
   Mo   Se   Li
     8    16     1
Selective dynamics
Direct
  0.1666666719999981  0.3333333429999996  0.1301324519999980   F   F   F
  0.1666666570000004  0.8333333730000021  0.1301324519999980   F   F   F
  0.6666666870000029  0.3333333429999996  0.1301324519999980   F   F   F
  0.6666666870000029  0.8333333730000021  0.1301324519999980   F   F   F
  0.3333326186330865  0.1666652682661791  0.3905298597532223   T   T   T
  0.3333326186330865  0.6666673213669085  0.3905298597532223   T   T   T
  0.8333333730000021  0.1666666570000004  0.3898260584397732   T   T   T
  0.8333347017338184  0.6666673213669085  0.3905298597532223   T   T   T
  0.3333333129999971  0.1666666570000004  0.0632665230000029   F   F   F
  0.3333333129999971  0.6666666269999979  0.0632665230000029   F   F   F
  0.8333333730000021  0.1666666570000004  0.0632665230000029   F   F   F
  0.8333333129999971  0.6666666269999979  0.0632665230000029   F   F   F
  0.3333333129999971  0.1666666570000004  0.1969983729999996   F   F   F
  0.3333333129999971  0.6666666269999979  0.1969983729999996   F   F   F
  0.8333333730000021  0.1666666570000004  0.1969983729999996   F   F   F
  0.8333333129999971  0.6666666269999979  0.1969983729999996   F   F   F
  0.1666145801322401  0.3333072970661206  0.3230702445355504   T   T   T
  0.1666666570000004  0.8333333730000021  0.3232791757434654   T   T   T
  0.6666927329338819  0.3333072970661206  0.3230702445355504   T   T   T
  0.6666927329338819  0.8333854648677601  0.3230702445355504   T   T   T
  0.1667796191617441  0.3333898165808762  0.4582596286797553   T   T   T
  0.1666666570000004  0.8333333730000021  0.4578256773085059   T   T   T
  0.6666102134191263  0.3333898165808762  0.4582596286797553   T   T   T
  0.6666102134191263  0.8332204258382561  0.4582596286797553   T   T   T
  0.4999999620611959  0.5000000000000000  0.5237933566056157   T   T   T
 
  0.00000000E+00  0.00000000E+00  0.00000000E+00
  0.00000000E+00  0.00000000E+00  0.00000000E+00
  0.00000000E+00  0.00000000E+00  0.00000000E+00
  0.00000000E+00  0.00000000E+00  0.00000000E+00
  0.00000000E+00  0.00000000E+00  0.00000000E+00
  0.00000000E+00  0.00000000E+00  0.00000000E+00
  0.00000000E+00  0.00000000E+00  0.00000000E+00
  0.00000000E+00  0.00000000E+00  0.00000000E+00
  0.00000000E+00  0.00000000E+00  0.00000000E+00
  0.00000000E+00  0.00000000E+00  0.00000000E+00
  0.00000000E+00  0.00000000E+00  0.00000000E+00
  0.00000000E+00  0.00000000E+00  0.00000000E+00
  0.00000000E+00  0.00000000E+00  0.00000000E+00
  0.00000000E+00  0.00000000E+00  0.00000000E+00
  0.00000000E+00  0.00000000E+00  0.00000000E+00
  0.00000000E+00  0.00000000E+00  0.00000000E+00
  0.00000000E+00  0.00000000E+00  0.00000000E+00
  0.00000000E+00  0.00000000E+00  0.00000000E+00
  0.00000000E+00  0.00000000E+00  0.00000000E+00
  0.00000000E+00  0.00000000E+00  0.00000000E+00
  0.00000000E+00  0.00000000E+00  0.00000000E+00
  0.00000000E+00  0.00000000E+00  0.00000000E+00
  0.00000000E+00  0.00000000E+00  0.00000000E+00
  0.00000000E+00  0.00000000E+00  0.00000000E+00
  0.00000000E+00  0.00000000E+00  0.00000000E+00
