 Mo2 S4                                 
   1.00000000000000     
     6.3237318993000002    0.0000000000000000    0.0000000000000000
    -3.1618666789000001    5.4765120505000002    0.0000000000000000
     0.0000000000000000    0.0000000000000000   25.0000000000000000
   Mo   S    Li
     8    16     1
Selective dynamics
Direct
  0.1666666719999981  0.3333333429999996  0.1234790529999970   F   F   F
  0.1666666719999981  0.8333333730000021  0.1234790529999970   F   F   F
  0.6666666870000029  0.3333333429999996  0.1234790529999970   F   F   F
  0.6666666870000029  0.8333333730000021  0.1234790529999970   F   F   F
  0.3332366454271778  0.1664733218543546  0.3706404792302607   T   T   T
  0.3332366454271778  0.6667632945728172  0.3706404792302607   T   T   T
  0.8333333129999971  0.1666666570000004  0.3702009566405025   T   T   T
  0.8335266481456429  0.6667632945728172  0.3706404792302607   T   T   T
  0.3333333129999971  0.1666666570000004  0.0608710610000003   F   F   F
  0.3333333129999971  0.6666666269999979  0.0608710610000003   F   F   F
  0.8333333129999971  0.1666666570000004  0.0608710610000003   F   F   F
  0.8333333129999971  0.6666666269999979  0.0608710610000003   F   F   F
  0.3333333129999971  0.1666666570000004  0.1860870419999969   F   F   F
  0.3333333129999971  0.6666666269999979  0.1860870419999969   F   F   F
  0.8333333129999971  0.1666666570000004  0.1860870419999969   F   F   F
  0.8333333129999971  0.6666666269999979  0.1860870419999969   F   F   F
  0.1662400835700240  0.3331200487850126  0.3075674295341884   T   T   T
  0.1666666719999981  0.8333333730000021  0.3077607654820014   T   T   T
  0.6668799812149899  0.3331200487850126  0.3075674295341884   T   T   T
  0.6668799812149899  0.8337599614299762  0.3075674295341884   T   T   T
  0.1674993508386535  0.3337496824193309  0.4345171282634581   T   T   T
  0.1666666719999981  0.8333333730000021  0.4337016680568908   T   T   T
  0.6662503475806716  0.3337496824193309  0.4345171282634581   T   T   T
  0.6662503475806716  0.8325006941613466  0.4345171282634581   T   T   T
  0.4999999620601443  0.5000000000000000  0.4953504949432030   T   T   T
 
  0.00000000E+00  0.00000000E+00  0.00000000E+00
  0.00000000E+00  0.00000000E+00  0.00000000E+00
  0.00000000E+00  0.00000000E+00  0.00000000E+00
  0.00000000E+00  0.00000000E+00  0.00000000E+00
  0.00000000E+00  0.00000000E+00  0.00000000E+00
  0.00000000E+00  0.00000000E+00  0.00000000E+00
  0.00000000E+00  0.00000000E+00  0.00000000E+00
  0.00000000E+00  0.00000000E+00  0.00000000E+00
  0.00000000E+00  0.00000000E+00  0.00000000E+00
  0.00000000E+00  0.00000000E+00  0.00000000E+00
  0.00000000E+00  0.00000000E+00  0.00000000E+00
  0.00000000E+00  0.00000000E+00  0.00000000E+00
  0.00000000E+00  0.00000000E+00  0.00000000E+00
  0.00000000E+00  0.00000000E+00  0.00000000E+00
  0.00000000E+00  0.00000000E+00  0.00000000E+00
  0.00000000E+00  0.00000000E+00  0.00000000E+00
  0.00000000E+00  0.00000000E+00  0.00000000E+00
  0.00000000E+00  0.00000000E+00  0.00000000E+00
  0.00000000E+00  0.00000000E+00  0.00000000E+00
  0.00000000E+00  0.00000000E+00  0.00000000E+00
  0.00000000E+00  0.00000000E+00  0.00000000E+00
  0.00000000E+00  0.00000000E+00  0.00000000E+00
  0.00000000E+00  0.00000000E+00  0.00000000E+00
  0.00000000E+00  0.00000000E+00  0.00000000E+00
  0.00000000E+00  0.00000000E+00  0.00000000E+00
