 In4 Se4                                
   1.00000000000000     
     8.1562280655000006    0.0000000000000000    0.0000000000000000
    -4.0781140327000003    7.0635007037999999    0.0000000000000000
     0.0000000000000000    0.0000000000000000   25.0000000000000000
   In   Se   Li
    16    16     1
Selective dynamics
Direct
  0.1666666719999981  0.3333333429999996  0.1124626470000010   F   F   F
  0.1666666719999981  0.8333333730000021  0.1124626470000010   F   F   F
  0.6666666870000029  0.3333333429999996  0.1124626470000010   F   F   F
  0.6666666870000029  0.8333333730000021  0.1124626470000010   F   F   F
  0.1666666719999981  0.3333333429999996  0.2239271099999982   F   F   F
  0.1666666719999981  0.8333333730000021  0.2239271099999982   F   F   F
  0.6666666870000029  0.3333333429999996  0.2239271099999982   F   F   F
  0.6666666870000029  0.8333333730000021  0.2239271099999982   F   F   F
  0.3354810328311899  0.1709621546623836  0.4487422953507618   T   T   T
  0.3354810618311888  0.6645188781688063  0.4487422953507618   T   T   T
  0.8333333129999971  0.1666666570000004  0.4478802710176808   T   T   T
  0.8290378153376139  0.6645188781688063  0.4487422953507618   T   T   T
  0.3336225092398379  0.1672451074796868  0.5607731567930756   T   T   T
  0.3336225382398368  0.6663774017601582  0.5607731567930756   T   T   T
  0.8333333129999971  0.1666666570000004  0.5649712744443605   T   T   T
  0.8327548625203107  0.6663774017601582  0.5607731567930756   T   T   T
  0.3333332839999983  0.1666666570000004  0.0615375000000000   F   F   F
  0.3333333129999971  0.6666666269999979  0.0615375000000000   F   F   F
  0.8333333129999971  0.1666666570000004  0.0615375000000000   F   F   F
  0.8333333129999971  0.6666666269999979  0.0615375000000000   F   F   F
  0.3333332839999983  0.1666666570000004  0.2748522759999972   F   F   F
  0.3333333129999971  0.6666666269999979  0.2748522759999972   F   F   F
  0.8333333129999971  0.1666666570000004  0.2748522759999972   F   F   F
  0.8333333129999971  0.6666666269999979  0.2748522759999972   F   F   F
  0.1729089380957944  0.3364544760478978  0.3970446142808797   T   T   T
  0.1666666719999981  0.8333333730000021  0.4006091911559864   T   T   T
  0.6635455539521047  0.3364544760478978  0.3970446142808797   T   T   T
  0.6635455539521047  0.8270911069042057  0.3970446142808797   T   T   T
  0.1807544757038784  0.3403772448519362  0.6171577302231626   T   T   T
  0.1666666719999981  0.8333333730000021  0.6125519905025669   T   T   T
  0.6596227851480592  0.3403772448519362  0.6171577302231626   T   T   T
  0.6596227851480592  0.8192455692961218  0.6171577302231626   T   T   T
  0.5000000005020411  0.5000000000000000  0.6660009050517601   T   T   T
 
  0.00000000E+00  0.00000000E+00  0.00000000E+00
  0.00000000E+00  0.00000000E+00  0.00000000E+00
  0.00000000E+00  0.00000000E+00  0.00000000E+00
  0.00000000E+00  0.00000000E+00  0.00000000E+00
  0.00000000E+00  0.00000000E+00  0.00000000E+00
  0.00000000E+00  0.00000000E+00  0.00000000E+00
  0.00000000E+00  0.00000000E+00  0.00000000E+00
  0.00000000E+00  0.00000000E+00  0.00000000E+00
  0.00000000E+00  0.00000000E+00  0.00000000E+00
  0.00000000E+00  0.00000000E+00  0.00000000E+00
  0.00000000E+00  0.00000000E+00  0.00000000E+00
  0.00000000E+00  0.00000000E+00  0.00000000E+00
  0.00000000E+00  0.00000000E+00  0.00000000E+00
  0.00000000E+00  0.00000000E+00  0.00000000E+00
  0.00000000E+00  0.00000000E+00  0.00000000E+00
  0.00000000E+00  0.00000000E+00  0.00000000E+00
  0.00000000E+00  0.00000000E+00  0.00000000E+00
  0.00000000E+00  0.00000000E+00  0.00000000E+00
  0.00000000E+00  0.00000000E+00  0.00000000E+00
  0.00000000E+00  0.00000000E+00  0.00000000E+00
  0.00000000E+00  0.00000000E+00  0.00000000E+00
  0.00000000E+00  0.00000000E+00  0.00000000E+00
  0.00000000E+00  0.00000000E+00  0.00000000E+00
  0.00000000E+00  0.00000000E+00  0.00000000E+00
  0.00000000E+00  0.00000000E+00  0.00000000E+00
  0.00000000E+00  0.00000000E+00  0.00000000E+00
  0.00000000E+00  0.00000000E+00  0.00000000E+00
  0.00000000E+00  0.00000000E+00  0.00000000E+00
  0.00000000E+00  0.00000000E+00  0.00000000E+00
  0.00000000E+00  0.00000000E+00  0.00000000E+00
  0.00000000E+00  0.00000000E+00  0.00000000E+00
  0.00000000E+00  0.00000000E+00  0.00000000E+00
  0.00000000E+00  0.00000000E+00  0.00000000E+00
