 Nb2C                                   
   1.00000000000000     
     6.3456001282000001    0.0000000000000000    0.0000000000000000
    -3.1728000641000000    5.4954509133000000    0.0000000000000000
     0.0000000000000000    0.0000000000000000   25.0000000000000000
   Nb   C    O    Li
    16     8    16     1
Selective dynamics
Direct
  0.1666699946987080  0.3333300054717441  0.1049758047600022   F   F   F
  0.1666699945978749  0.8333300351963331  0.1049758047600022   F   F   F
  0.6666699648985315  0.3333300054717441  0.1049758047600022   F   F   F
  0.6666699647976984  0.8333300351963331  0.1049758047600022   F   F   F
  0.3333300054828499  0.1666699945919419  0.2034865520399975   F   F   F
  0.3333300054145525  0.6666699648127690  0.2034865520399975   F   F   F
  0.8333300352515067  0.1666699945919419  0.2034865520399975   F   F   F
  0.8333300351832094  0.6666699648127690  0.2034865520399975   F   F   F
  0.1547852321097452  0.3224521862642860  0.3974603794510116   T   T   T
  0.1608978704069912  0.8255222316654098  0.3940027664522461   T   T   T
  0.6638108740113040  0.3225624413539734  0.3974140399735333   T   T   T
  0.6639687800549439  0.8317119195491429  0.3975139302941884   T   T   T
  0.3264618197447646  0.6599751785007726  0.4979050772348614   T   T   T
  0.3264294837016450  0.1567315876613691  0.4979138042276574   T   T   T
  0.8297134893277445  0.6600243391673928  0.4979094592206863   T   T   T
  0.8275399536794410  0.1589609051532648  0.4978998089805060   T   T   T
  0.0000000000000000  0.0000000000000000  0.1542281689999996   F   F   F
  0.0000000000397264  0.5000000000636859  0.1542281689999996   F   F   F
  0.4999999999842402  0.0000000000000000  0.1542281689999996   F   F   F
  0.5000000000239666  0.5000000000636859  0.1542281689999996   F   F   F
  0.4942002029229045  0.4922045222198719  0.4473709267110451   T   T   T
  0.4905147173982911  0.9904763168109127  0.4470405774173472   T   T   T
  0.9959871995283791  0.4958924497366723  0.4470267844511184   T   T   T
  0.9961106672665991  0.9904065263797577  0.4470495197644766   T   T   T
  0.3271945657139028  0.1636021828207177  0.0569758047600004   F   F   F
  0.3271945655987523  0.6543989020621552  0.0569758047600004   F   F   F
  0.8179913433361676  0.1636021828207177  0.0569758047600004   F   F   F
  0.8179913433786083  0.6543989020621552  0.0569758047600004   F   F   F
  0.1636021827893970  0.3271945657176758  0.2514865520399994   F   F   F
  0.1636021828837571  0.8179913433710624  0.2514865520399994   F   F   F
  0.6543989021035514  0.3271945657176758  0.2514865520399994   F   F   F
  0.6543989020403131  0.8179913433710624  0.2514865520399994   F   F   F
  0.3340661655867478  0.6524403074317249  0.3515528696495593   T   T   T
  0.3336830606430894  0.1715048973244109  0.3514709393202722   T   T   T
  0.8147758660645721  0.6527218371870092  0.3514443774119798   T   T   T
  0.8274549586006898  0.1588935653438455  0.3522978393546907   T   T   T
  0.1623851284164388  0.3263323060566279  0.5411934643500231   T   T   T
  0.1608823393466423  0.8255252142578939  0.5419887035814739   T   T   T
  0.6601231983980682  0.3263443003782314  0.5411822856795467   T   T   T
  0.6601200241918121  0.8240749135401373  0.5411869623431826   T   T   T
  0.4948312156545853  0.4953554115385401  0.3003047008592858   T   T   T
 
  0.00000000E+00  0.00000000E+00  0.00000000E+00
  0.00000000E+00  0.00000000E+00  0.00000000E+00
  0.00000000E+00  0.00000000E+00  0.00000000E+00
  0.00000000E+00  0.00000000E+00  0.00000000E+00
  0.00000000E+00  0.00000000E+00  0.00000000E+00
  0.00000000E+00  0.00000000E+00  0.00000000E+00
  0.00000000E+00  0.00000000E+00  0.00000000E+00
  0.00000000E+00  0.00000000E+00  0.00000000E+00
  0.00000000E+00  0.00000000E+00  0.00000000E+00
  0.00000000E+00  0.00000000E+00  0.00000000E+00
  0.00000000E+00  0.00000000E+00  0.00000000E+00
  0.00000000E+00  0.00000000E+00  0.00000000E+00
  0.00000000E+00  0.00000000E+00  0.00000000E+00
  0.00000000E+00  0.00000000E+00  0.00000000E+00
  0.00000000E+00  0.00000000E+00  0.00000000E+00
  0.00000000E+00  0.00000000E+00  0.00000000E+00
  0.00000000E+00  0.00000000E+00  0.00000000E+00
  0.00000000E+00  0.00000000E+00  0.00000000E+00
  0.00000000E+00  0.00000000E+00  0.00000000E+00
  0.00000000E+00  0.00000000E+00  0.00000000E+00
  0.00000000E+00  0.00000000E+00  0.00000000E+00
  0.00000000E+00  0.00000000E+00  0.00000000E+00
  0.00000000E+00  0.00000000E+00  0.00000000E+00
  0.00000000E+00  0.00000000E+00  0.00000000E+00
  0.00000000E+00  0.00000000E+00  0.00000000E+00
  0.00000000E+00  0.00000000E+00  0.00000000E+00
  0.00000000E+00  0.00000000E+00  0.00000000E+00
  0.00000000E+00  0.00000000E+00  0.00000000E+00
  0.00000000E+00  0.00000000E+00  0.00000000E+00
  0.00000000E+00  0.00000000E+00  0.00000000E+00
  0.00000000E+00  0.00000000E+00  0.00000000E+00
  0.00000000E+00  0.00000000E+00  0.00000000E+00
  0.00000000E+00  0.00000000E+00  0.00000000E+00
  0.00000000E+00  0.00000000E+00  0.00000000E+00
  0.00000000E+00  0.00000000E+00  0.00000000E+00
  0.00000000E+00  0.00000000E+00  0.00000000E+00
  0.00000000E+00  0.00000000E+00  0.00000000E+00
  0.00000000E+00  0.00000000E+00  0.00000000E+00
  0.00000000E+00  0.00000000E+00  0.00000000E+00
  0.00000000E+00  0.00000000E+00  0.00000000E+00
  0.00000000E+00  0.00000000E+00  0.00000000E+00
