 Ti2C                                   
   1.00000000000000     
     6.2287998198999999    0.0000000000000000    0.0000000000000000
    -3.1143999099999999    5.3942988792000000    0.0000000000000000
     0.0000000000000000    0.0000000000000000   25.0000000000000000
   Ti   C    O    Li
    16     8    16     1
Selective dynamics
Direct
  0.1666699945583403  0.3333300054865802  0.0977136903600027   F   F   F
  0.1666699946557841  0.8333300352216781  0.0977136903600027   F   F   F
  0.6666699648656191  0.3333300054865802  0.0977136903600027   F   F   F
  0.6666699648025229  0.8333300352216781  0.0977136903600027   F   F   F
  0.3333300054867649  0.1666699945875720  0.1909879624399977   F   F   F
  0.3333300053707760  0.6666699648153980  0.1909879624399977   F   F   F
  0.8333300351955373  0.1666699945875720  0.1909879624399977   F   F   F
  0.8333300352400954  0.6666699648153980  0.1909879624399977   F   F   F
  0.9974347439977294  0.9987183320673836  0.3983461352042852   T   T   T
  0.9999999790012311  0.5000000211099973  0.3951736383921869   T   T   T
  0.5012827958726689  0.9987172041353602  0.3983475351616050   T   T   T
  0.5012816679777217  0.5025652560764229  0.3983461352042852   T   T   T
  0.1665507060911722  0.3334492939537483  0.5017600544990444   T   T   T
  0.1665504084310143  0.8331018022920205  0.5017599766305239   T   T   T
  0.6668981977952768  0.3334495917113500  0.5017599766305239   T   T   T
  0.6666666028407917  0.8333333971834094  0.5024920808415843   T   T   T
  0.0000000000000000  0.0000000000000000  0.1443537243600019   F   F   F
  0.0000000000370761  0.5000000000741522  0.1443537243600019   F   F   F
  0.5000000000080291  0.0000000000000000  0.1443537243600019   F   F   F
  0.5000000000451053  0.5000000000741522  0.1443537243600019   F   F   F
  0.3333329844100987  0.1666670156642382  0.4501995465079460   T   T   T
  0.3304610923444926  0.6652308266686902  0.4489370095076239   T   T   T
  0.8347691733422451  0.1695389076138554  0.4489370095076239   T   T   T
  0.8347688309162393  0.6652311691392541  0.4489366938974726   T   T   T
  0.3333300054867649  0.1666699945875720  0.0497136903600008   F   F   F
  0.3333300053707760  0.6666699648153980  0.0497136903600008   F   F   F
  0.8333300351955373  0.1666699945875720  0.0497136903600008   F   F   F
  0.8333300352400954  0.6666699648153980  0.0497136903600008   F   F   F
  0.1666699945583403  0.3333300054865802  0.2389879624399995   F   F   F
  0.1666699946557841  0.8333300352216781  0.2389879624399995   F   F   F
  0.6666699648656191  0.3333300054865802  0.2389879624399995   F   F   F
  0.6666699648025229  0.8333300352216781  0.2389879624399995   F   F   F
  0.1714353324989233  0.3285646675459972  0.3591996270419600   T   T   T
  0.1714401468381084  0.8428782304971705  0.3591985700529889   T   T   T
  0.6571217695901268  0.3285598533042560  0.3591985700529889   T   T   T
  0.6666659911598458  0.8333340088643553  0.3615329958310056   T   T   T
  0.9982267664153781  0.9991133985521969  0.5382614351144994   T   T   T
  0.9999998650443516  0.5000001350668768  0.5382170843456251   T   T   T
  0.5008864533411383  0.9991135466668908  0.5382614274055371   T   T   T
  0.5008866014929083  0.5017732336587741  0.5382614351144994   T   T   T
  0.3333714900724516  0.1666293141910842  0.2944429080579027   T   T   T
 
  0.00000000E+00  0.00000000E+00  0.00000000E+00
  0.00000000E+00  0.00000000E+00  0.00000000E+00
  0.00000000E+00  0.00000000E+00  0.00000000E+00
  0.00000000E+00  0.00000000E+00  0.00000000E+00
  0.00000000E+00  0.00000000E+00  0.00000000E+00
  0.00000000E+00  0.00000000E+00  0.00000000E+00
  0.00000000E+00  0.00000000E+00  0.00000000E+00
  0.00000000E+00  0.00000000E+00  0.00000000E+00
  0.00000000E+00  0.00000000E+00  0.00000000E+00
  0.00000000E+00  0.00000000E+00  0.00000000E+00
  0.00000000E+00  0.00000000E+00  0.00000000E+00
  0.00000000E+00  0.00000000E+00  0.00000000E+00
  0.00000000E+00  0.00000000E+00  0.00000000E+00
  0.00000000E+00  0.00000000E+00  0.00000000E+00
  0.00000000E+00  0.00000000E+00  0.00000000E+00
  0.00000000E+00  0.00000000E+00  0.00000000E+00
  0.00000000E+00  0.00000000E+00  0.00000000E+00
  0.00000000E+00  0.00000000E+00  0.00000000E+00
  0.00000000E+00  0.00000000E+00  0.00000000E+00
  0.00000000E+00  0.00000000E+00  0.00000000E+00
  0.00000000E+00  0.00000000E+00  0.00000000E+00
  0.00000000E+00  0.00000000E+00  0.00000000E+00
  0.00000000E+00  0.00000000E+00  0.00000000E+00
  0.00000000E+00  0.00000000E+00  0.00000000E+00
  0.00000000E+00  0.00000000E+00  0.00000000E+00
  0.00000000E+00  0.00000000E+00  0.00000000E+00
  0.00000000E+00  0.00000000E+00  0.00000000E+00
  0.00000000E+00  0.00000000E+00  0.00000000E+00
  0.00000000E+00  0.00000000E+00  0.00000000E+00
  0.00000000E+00  0.00000000E+00  0.00000000E+00
  0.00000000E+00  0.00000000E+00  0.00000000E+00
  0.00000000E+00  0.00000000E+00  0.00000000E+00
  0.00000000E+00  0.00000000E+00  0.00000000E+00
  0.00000000E+00  0.00000000E+00  0.00000000E+00
  0.00000000E+00  0.00000000E+00  0.00000000E+00
  0.00000000E+00  0.00000000E+00  0.00000000E+00
  0.00000000E+00  0.00000000E+00  0.00000000E+00
  0.00000000E+00  0.00000000E+00  0.00000000E+00
  0.00000000E+00  0.00000000E+00  0.00000000E+00
  0.00000000E+00  0.00000000E+00  0.00000000E+00
  0.00000000E+00  0.00000000E+00  0.00000000E+00
