 Ti3C2\(2)                              
   1.00000000000000     
     6.1872000694000002    0.0000000000000000    0.0000000000000000
    -3.0936000347000001    5.3582724384000002    0.0000000000000000
     0.0000000000000000    0.0000000000000000   30.0000000000000000
   Ti   C    F    Li
    24    16    16     1
Selective dynamics
Direct
  0.1666699949999995  0.3333300050000005  0.1620416716666639   F   F   F
  0.1666699949999995  0.8333299760000017  0.1620416716666639   F   F   F
  0.6666700239999983  0.3333300050000005  0.1620416716666639   F   F   F
  0.6666700239999983  0.8333299760000017  0.1620416716666639   F   F   F
  0.0000000000000000  0.0000000000000000  0.2423000083333307   F   F   F
  0.0000000000000000  0.5000000000000000  0.2423000083333307   F   F   F
  0.5000000000000000  0.0000000000000000  0.2423000083333307   F   F   F
  0.5000000000000000  0.5000000000000000  0.2423000083333307   F   F   F
  0.3333300050000005  0.1666699949999995  0.3225499891666672   F   F   F
  0.3333300050000005  0.6666700239999983  0.3225499891666672   F   F   F
  0.8333299760000017  0.1666699949999995  0.3225499891666672   F   F   F
  0.8333299760000017  0.6666700239999983  0.3225499891666672   F   F   F
  0.3333326271676711  0.1666673728323289  0.4996421906971094   T   T   T
  0.3332537515571303  0.6666277785154620  0.4997118669561260   T   T   T
  0.8333722214845380  0.1667462484428697  0.4997118669561260   T   T   T
  0.8333721177564115  0.6666278822435885  0.4997119136666370   T   T   T
  0.0003034576717766  0.0001527661889114  0.5794796772376216   T   T   T
  0.9999993385071164  0.5000006614928836  0.5794109093914557   T   T   T
  0.4998472468963939  0.0001527531036061  0.5794796896679983   T   T   T
  0.4998472338110886  0.4996965423282234  0.5794796772376216   T   T   T
  0.1646329855019033  0.3353670144980967  0.6583860564349138   T   T   T
  0.1646330361440036  0.8292682477648015  0.6583861114645444   T   T   T
  0.6707317522351985  0.3353669638559964  0.6583861114645444   T   T   T
  0.6666659558060530  0.8333340441939470  0.6591155994115425   T   T   T
  0.3333300050000005  0.1666699949999995  0.1986583325000026   F   F   F
  0.3333300050000005  0.6666700239999983  0.1986583325000026   F   F   F
  0.8333299760000017  0.1666699949999995  0.1986583325000026   F   F   F
  0.8333299760000017  0.6666700239999983  0.1986583325000026   F   F   F
  0.1666699949999995  0.3333300050000005  0.2859333408333313   F   F   F
  0.1666699949999995  0.8333299760000017  0.2859333408333313   F   F   F
  0.6666700239999983  0.3333300050000005  0.2859333408333313   F   F   F
  0.6666700239999983  0.8333299760000017  0.2859333408333313   F   F   F
  0.1669142604270846  0.3330857395729154  0.5360363180399901   T   T   T
  0.1669140265249638  0.8338307338998732  0.5360363027474477   T   T   T
  0.6661692661001268  0.3330859734750362  0.5360363027474477   T   T   T
  0.6666660130844591  0.8333339869155409  0.5360410354900864   T   T   T
  0.3333326569109190  0.1666673430890810  0.6235664617463144   T   T   T
  0.3364493978546150  0.6682255116295650  0.6234403789211953   T   T   T
  0.8317744883704350  0.1635506021453850  0.6234403789211953   T   T   T
  0.8317743456498263  0.6682256543501737  0.6234404006445544   T   T   T
  0.0000000000000000  0.0000000000000000  0.1203750000000028   F   F   F
  0.0000000000000000  0.5000000000000000  0.1203750000000028   F   F   F
  0.5000000000000000  0.0000000000000000  0.1203750000000028   F   F   F
  0.5000000000000000  0.5000000000000000  0.1203750000000028   F   F   F
  0.0000000000000000  0.0000000000000000  0.3642166666666640   F   F   F
  0.0000000000000000  0.5000000000000000  0.3642166666666640   F   F   F
  0.5000000000000000  0.0000000000000000  0.3642166666666640   F   F   F
  0.5000000000000000  0.5000000000000000  0.3642166666666640   F   F   F
  0.9998175839035639  0.9999098806069711  0.4576682323100201   T   T   T
  0.9999992928668817  0.5000007071331183  0.4576477560173942   T   T   T
  0.5000901405546330  0.9999098594453670  0.4576682373420979   T   T   T
  0.5000901193930289  0.5001824160964361  0.4576682323100201   T   T   T
  0.0262403757558687  0.0131213234637855  0.7088982707864986   T   T   T
  0.9999994251150071  0.5000005748849929  0.7038606123613533   T   T   T
  0.4868783193417769  0.0131216806582231  0.7088983216989675   T   T   T
  0.4868786765362145  0.4737596242441313  0.7088982707864986   T   T   T
  0.3333319501741983  0.1666672836483301  0.7380965951320348   T   T   T
 
  0.00000000E+00  0.00000000E+00  0.00000000E+00
  0.00000000E+00  0.00000000E+00  0.00000000E+00
  0.00000000E+00  0.00000000E+00  0.00000000E+00
  0.00000000E+00  0.00000000E+00  0.00000000E+00
  0.00000000E+00  0.00000000E+00  0.00000000E+00
  0.00000000E+00  0.00000000E+00  0.00000000E+00
  0.00000000E+00  0.00000000E+00  0.00000000E+00
  0.00000000E+00  0.00000000E+00  0.00000000E+00
  0.00000000E+00  0.00000000E+00  0.00000000E+00
  0.00000000E+00  0.00000000E+00  0.00000000E+00
  0.00000000E+00  0.00000000E+00  0.00000000E+00
  0.00000000E+00  0.00000000E+00  0.00000000E+00
  0.00000000E+00  0.00000000E+00  0.00000000E+00
  0.00000000E+00  0.00000000E+00  0.00000000E+00
  0.00000000E+00  0.00000000E+00  0.00000000E+00
  0.00000000E+00  0.00000000E+00  0.00000000E+00
  0.00000000E+00  0.00000000E+00  0.00000000E+00
  0.00000000E+00  0.00000000E+00  0.00000000E+00
  0.00000000E+00  0.00000000E+00  0.00000000E+00
  0.00000000E+00  0.00000000E+00  0.00000000E+00
  0.00000000E+00  0.00000000E+00  0.00000000E+00
  0.00000000E+00  0.00000000E+00  0.00000000E+00
  0.00000000E+00  0.00000000E+00  0.00000000E+00
  0.00000000E+00  0.00000000E+00  0.00000000E+00
  0.00000000E+00  0.00000000E+00  0.00000000E+00
  0.00000000E+00  0.00000000E+00  0.00000000E+00
  0.00000000E+00  0.00000000E+00  0.00000000E+00
  0.00000000E+00  0.00000000E+00  0.00000000E+00
  0.00000000E+00  0.00000000E+00  0.00000000E+00
  0.00000000E+00  0.00000000E+00  0.00000000E+00
  0.00000000E+00  0.00000000E+00  0.00000000E+00
  0.00000000E+00  0.00000000E+00  0.00000000E+00
  0.00000000E+00  0.00000000E+00  0.00000000E+00
  0.00000000E+00  0.00000000E+00  0.00000000E+00
  0.00000000E+00  0.00000000E+00  0.00000000E+00
  0.00000000E+00  0.00000000E+00  0.00000000E+00
  0.00000000E+00  0.00000000E+00  0.00000000E+00
  0.00000000E+00  0.00000000E+00  0.00000000E+00
  0.00000000E+00  0.00000000E+00  0.00000000E+00
  0.00000000E+00  0.00000000E+00  0.00000000E+00
  0.00000000E+00  0.00000000E+00  0.00000000E+00
  0.00000000E+00  0.00000000E+00  0.00000000E+00
  0.00000000E+00  0.00000000E+00  0.00000000E+00
  0.00000000E+00  0.00000000E+00  0.00000000E+00
  0.00000000E+00  0.00000000E+00  0.00000000E+00
  0.00000000E+00  0.00000000E+00  0.00000000E+00
  0.00000000E+00  0.00000000E+00  0.00000000E+00
  0.00000000E+00  0.00000000E+00  0.00000000E+00
  0.00000000E+00  0.00000000E+00  0.00000000E+00
  0.00000000E+00  0.00000000E+00  0.00000000E+00
  0.00000000E+00  0.00000000E+00  0.00000000E+00
  0.00000000E+00  0.00000000E+00  0.00000000E+00
  0.00000000E+00  0.00000000E+00  0.00000000E+00
  0.00000000E+00  0.00000000E+00  0.00000000E+00
  0.00000000E+00  0.00000000E+00  0.00000000E+00
  0.00000000E+00  0.00000000E+00  0.00000000E+00
  0.00000000E+00  0.00000000E+00  0.00000000E+00
