 Ti3C2\(2)                              
   1.00000000000000     
     6.1872000694000002    0.0000000000000000    0.0000000000000000
    -3.0936000347000001    5.3582724384000002    0.0000000000000000
     0.0000000000000000    0.0000000000000000   30.0000000000000000
   Ti   C    O    Li
    24    16    16     1
Selective dynamics
Direct
  0.1666699949999995  0.3333300050000005  0.1620416716666639   F   F   F
  0.1666699949999995  0.8333299760000017  0.1620416716666639   F   F   F
  0.6666700239999983  0.3333300050000005  0.1620416716666639   F   F   F
  0.6666700239999983  0.8333299760000017  0.1620416716666639   F   F   F
  0.0000000000000000  0.0000000000000000  0.2423000083333307   F   F   F
  0.0000000000000000  0.5000000000000000  0.2423000083333307   F   F   F
  0.5000000000000000  0.0000000000000000  0.2423000083333307   F   F   F
  0.5000000000000000  0.5000000000000000  0.2423000083333307   F   F   F
  0.3333300050000005  0.1666699949999995  0.3225499891666672   F   F   F
  0.3333300050000005  0.6666700239999983  0.3225499891666672   F   F   F
  0.8333299760000017  0.1666699949999995  0.3225499891666672   F   F   F
  0.8333299760000017  0.6666700239999983  0.3225499891666672   F   F   F
  0.3313756847147360  0.1656875219756060  0.4946085644576854   T   T   T
  0.3333334893922597  0.6666665396077391  0.4925970437125571   T   T   T
  0.8343120647969755  0.1656879062030256  0.4946082002782504   T   T   T
  0.8343124490243952  0.6686243442852629  0.4946085644576854   T   T   T
  0.9999997549806849  0.0000002450193151  0.5803922707946967   T   T   T
  0.0001331200879662  0.5000667670690220  0.5799377616351791   T   T   T
  0.4999332329309780  0.9998668799120338  0.5799377616351791   T   T   T
  0.4999331289509783  0.5000668710490217  0.5799377397405578   T   T   T
  0.1667303371139610  0.3334619437809820  0.6661345537106627   T   T   T
  0.1667303136541705  0.8332696573458307  0.6661345494713657   T   T   T
  0.6666662391928355  0.3333337898071633  0.6661973519786741   T   T   T
  0.6665380852190168  0.8332696338860401  0.6661345537106627   T   T   T
  0.3333300050000005  0.1666699949999995  0.1986583325000026   F   F   F
  0.3333300050000005  0.6666700239999983  0.1986583325000026   F   F   F
  0.8333299760000017  0.1666699949999995  0.1986583325000026   F   F   F
  0.8333299760000017  0.6666700239999983  0.1986583325000026   F   F   F
  0.1666699949999995  0.3333300050000005  0.2859333408333313   F   F   F
  0.1666699949999995  0.8333299760000017  0.2859333408333313   F   F   F
  0.6666700239999983  0.3333300050000005  0.2859333408333313   F   F   F
  0.6666700239999983  0.8333299760000017  0.2859333408333313   F   F   F
  0.1677071888498389  0.3354145849800005  0.5373986315110528   T   T   T
  0.1677072329073752  0.8322927380926259  0.5373987267624187   T   T   T
  0.6666666465420619  0.3333333824579441  0.5382776890106271   T   T   T
  0.6645854440199983  0.8322927821501622  0.5373986315110528   T   T   T
  0.3326932844623229  0.1663471041023641  0.6221053119192135   T   T   T
  0.3333330388199087  0.6666669901800901  0.6222862389714408   T   T   T
  0.8336529022978212  0.1663470687021729  0.6221052931661575   T   T   T
  0.8336528668976442  0.6673067445376759  0.6221053119192135   T   T   T
  0.0000000000000000  0.0000000000000000  0.1203750000000028   F   F   F
  0.0000000000000000  0.5000000000000000  0.1203750000000028   F   F   F
  0.5000000000000000  0.0000000000000000  0.1203750000000028   F   F   F
  0.5000000000000000  0.5000000000000000  0.1203750000000028   F   F   F
  0.0000000000000000  0.0000000000000000  0.3642166666666640   F   F   F
  0.0000000000000000  0.5000000000000000  0.3642166666666640   F   F   F
  0.5000000000000000  0.0000000000000000  0.3642166666666640   F   F   F
  0.5000000000000000  0.5000000000000000  0.3642166666666640   F   F   F
  0.0000001869936170  0.9999998130063830  0.4639335071884219   T   T   T
  0.9929833711045859  0.4964920681967868  0.4625031620994449   T   T   T
  0.5035079318032132  0.0070166288954141  0.4625031620994449   T   T   T
  0.5035094039688417  0.4964905960311583  0.4625028891066592   T   T   T
  0.9999995477665209  0.0000004522334791  0.6967872601668788   T   T   T
  0.9993843904825894  0.4996928312255093  0.6966723625141924   T   T   T
  0.5003071687744907  0.0006156095174106  0.6966723625141924   T   T   T
  0.5003071584172361  0.4996928415827639  0.6966723676084428   T   T   T
  0.6666522749925718  0.3333467417634779  0.4003284317084237   T   T   T
 
  0.00000000E+00  0.00000000E+00  0.00000000E+00
  0.00000000E+00  0.00000000E+00  0.00000000E+00
  0.00000000E+00  0.00000000E+00  0.00000000E+00
  0.00000000E+00  0.00000000E+00  0.00000000E+00
  0.00000000E+00  0.00000000E+00  0.00000000E+00
  0.00000000E+00  0.00000000E+00  0.00000000E+00
  0.00000000E+00  0.00000000E+00  0.00000000E+00
  0.00000000E+00  0.00000000E+00  0.00000000E+00
  0.00000000E+00  0.00000000E+00  0.00000000E+00
  0.00000000E+00  0.00000000E+00  0.00000000E+00
  0.00000000E+00  0.00000000E+00  0.00000000E+00
  0.00000000E+00  0.00000000E+00  0.00000000E+00
  0.00000000E+00  0.00000000E+00  0.00000000E+00
  0.00000000E+00  0.00000000E+00  0.00000000E+00
  0.00000000E+00  0.00000000E+00  0.00000000E+00
  0.00000000E+00  0.00000000E+00  0.00000000E+00
  0.00000000E+00  0.00000000E+00  0.00000000E+00
  0.00000000E+00  0.00000000E+00  0.00000000E+00
  0.00000000E+00  0.00000000E+00  0.00000000E+00
  0.00000000E+00  0.00000000E+00  0.00000000E+00
  0.00000000E+00  0.00000000E+00  0.00000000E+00
  0.00000000E+00  0.00000000E+00  0.00000000E+00
  0.00000000E+00  0.00000000E+00  0.00000000E+00
  0.00000000E+00  0.00000000E+00  0.00000000E+00
  0.00000000E+00  0.00000000E+00  0.00000000E+00
  0.00000000E+00  0.00000000E+00  0.00000000E+00
  0.00000000E+00  0.00000000E+00  0.00000000E+00
  0.00000000E+00  0.00000000E+00  0.00000000E+00
  0.00000000E+00  0.00000000E+00  0.00000000E+00
  0.00000000E+00  0.00000000E+00  0.00000000E+00
  0.00000000E+00  0.00000000E+00  0.00000000E+00
  0.00000000E+00  0.00000000E+00  0.00000000E+00
  0.00000000E+00  0.00000000E+00  0.00000000E+00
  0.00000000E+00  0.00000000E+00  0.00000000E+00
  0.00000000E+00  0.00000000E+00  0.00000000E+00
  0.00000000E+00  0.00000000E+00  0.00000000E+00
  0.00000000E+00  0.00000000E+00  0.00000000E+00
  0.00000000E+00  0.00000000E+00  0.00000000E+00
  0.00000000E+00  0.00000000E+00  0.00000000E+00
  0.00000000E+00  0.00000000E+00  0.00000000E+00
  0.00000000E+00  0.00000000E+00  0.00000000E+00
  0.00000000E+00  0.00000000E+00  0.00000000E+00
  0.00000000E+00  0.00000000E+00  0.00000000E+00
  0.00000000E+00  0.00000000E+00  0.00000000E+00
  0.00000000E+00  0.00000000E+00  0.00000000E+00
  0.00000000E+00  0.00000000E+00  0.00000000E+00
  0.00000000E+00  0.00000000E+00  0.00000000E+00
  0.00000000E+00  0.00000000E+00  0.00000000E+00
  0.00000000E+00  0.00000000E+00  0.00000000E+00
  0.00000000E+00  0.00000000E+00  0.00000000E+00
  0.00000000E+00  0.00000000E+00  0.00000000E+00
  0.00000000E+00  0.00000000E+00  0.00000000E+00
  0.00000000E+00  0.00000000E+00  0.00000000E+00
  0.00000000E+00  0.00000000E+00  0.00000000E+00
  0.00000000E+00  0.00000000E+00  0.00000000E+00
  0.00000000E+00  0.00000000E+00  0.00000000E+00
  0.00000000E+00  0.00000000E+00  0.00000000E+00
