 Ti3C2\(2)                              
   1.00000000000000     
     6.1872000694000002    0.0000000000000000    0.0000000000000000
    -3.0936000347000001    5.3582724384000002    0.0000000000000000
     0.0000000000000000    0.0000000000000000   30.0000000000000000
   Ti   C    O    Li
    24    16    16     1
Selective dynamics
Direct
  0.1666699949999995  0.3333300050000005  0.1620416716666639   F   F   F
  0.1666699949999995  0.8333299760000017  0.1620416716666639   F   F   F
  0.6666700239999983  0.3333300050000005  0.1620416716666639   F   F   F
  0.6666700239999983  0.8333299760000017  0.1620416716666639   F   F   F
  0.0000000000000000  0.0000000000000000  0.2423000083333307   F   F   F
  0.0000000000000000  0.5000000000000000  0.2423000083333307   F   F   F
  0.5000000000000000  0.0000000000000000  0.2423000083333307   F   F   F
  0.5000000000000000  0.5000000000000000  0.2423000083333307   F   F   F
  0.3333300050000005  0.1666699949999995  0.3225499891666672   F   F   F
  0.3333300050000005  0.6666700239999983  0.3225499891666672   F   F   F
  0.8333299760000017  0.1666699949999995  0.3225499891666672   F   F   F
  0.8333299760000017  0.6666700239999983  0.3225499891666672   F   F   F
  0.3333332444321542  0.1666667555678458  0.4860483689639210   T   T   T
  0.3333823414692816  0.6666913059384996  0.4860603343349368   T   T   T
  0.8333086940615004  0.1666176585307184  0.4860603343349368   T   T   T
  0.8333086907577680  0.6666913092422320  0.4860603392544576   T   T   T
  0.9999531251254865  0.9999772133408058  0.5721654562649121   T   T   T
  0.9999996116972980  0.5000003883027020  0.5716076420542962   T   T   T
  0.5000228167917413  0.9999771832082587  0.5721654464529564   T   T   T
  0.5000227866591942  0.5000468748745135  0.5721654562649121   T   T   T
  0.1645893244643943  0.3354106755356057  0.6566017635536596   T   T   T
  0.1645891339624725  0.8291802093471645  0.6566016381028703   T   T   T
  0.6708197906528355  0.3354108660375275  0.6566016381028703   T   T   T
  0.6666660356259371  0.8333339643740629  0.6593793988649210   T   T   T
  0.3333300050000005  0.1666699949999995  0.1986583325000026   F   F   F
  0.3333300050000005  0.6666700239999983  0.1986583325000026   F   F   F
  0.8333299760000017  0.1666699949999995  0.1986583325000026   F   F   F
  0.8333299760000017  0.6666700239999983  0.1986583325000026   F   F   F
  0.1666699949999995  0.3333300050000005  0.2859333408333313   F   F   F
  0.1666699949999995  0.8333299760000017  0.2859333408333313   F   F   F
  0.6666700239999983  0.3333300050000005  0.2859333408333313   F   F   F
  0.6666700239999983  0.8333299760000017  0.2859333408333313   F   F   F
  0.1662141485303863  0.3337858514696137  0.5305667370572920   T   T   T
  0.1662141769552576  0.8324289949529771  0.5305667433694552   T   T   T
  0.6675710050470229  0.3337858230447424  0.5305667433694552   T   T   T
  0.6666664232671309  0.8333335767328691  0.5304372077312465   T   T   T
  0.3333327992250830  0.1666672007749170  0.6144843202792885   T   T   T
  0.3370733105079466  0.6685373508220351  0.6156509745220475   T   T   T
  0.8314626491779649  0.1629266894920534  0.6156509745220475   T   T   T
  0.8314625980663948  0.6685374019336052  0.6156509334166174   T   T   T
  0.0000000000000000  0.0000000000000000  0.1203750000000028   F   F   F
  0.0000000000000000  0.5000000000000000  0.1203750000000028   F   F   F
  0.5000000000000000  0.0000000000000000  0.1203750000000028   F   F   F
  0.5000000000000000  0.5000000000000000  0.1203750000000028   F   F   F
  0.0000000000000000  0.0000000000000000  0.3642166666666640   F   F   F
  0.0000000000000000  0.5000000000000000  0.3642166666666640   F   F   F
  0.5000000000000000  0.0000000000000000  0.3642166666666640   F   F   F
  0.5000000000000000  0.5000000000000000  0.3642166666666640   F   F   F
  0.0007261852770171  0.0003631410895863  0.4565789844484058   T   T   T
  0.9999999392728967  0.5000000607271033  0.4564494356582713   T   T   T
  0.4996368186623315  0.0003631813376685  0.4565789802682829   T   T   T
  0.4996368589104065  0.4992738147229829  0.4565789844484058   T   T   T
  0.0143782480238173  0.0071898706559423  0.6926753867952513   T   T   T
  0.9999992865833462  0.5000007134166466  0.6896491112018523   T   T   T
  0.4928101645897556  0.0071898354102444  0.6926753505591350   T   T   T
  0.4928101293440577  0.4856217519761827  0.6926753867952513   T   T   T
  0.3333340393856616  0.1666651944368667  0.7281377272776908   T   T   T
 
  0.00000000E+00  0.00000000E+00  0.00000000E+00
  0.00000000E+00  0.00000000E+00  0.00000000E+00
  0.00000000E+00  0.00000000E+00  0.00000000E+00
  0.00000000E+00  0.00000000E+00  0.00000000E+00
  0.00000000E+00  0.00000000E+00  0.00000000E+00
  0.00000000E+00  0.00000000E+00  0.00000000E+00
  0.00000000E+00  0.00000000E+00  0.00000000E+00
  0.00000000E+00  0.00000000E+00  0.00000000E+00
  0.00000000E+00  0.00000000E+00  0.00000000E+00
  0.00000000E+00  0.00000000E+00  0.00000000E+00
  0.00000000E+00  0.00000000E+00  0.00000000E+00
  0.00000000E+00  0.00000000E+00  0.00000000E+00
  0.00000000E+00  0.00000000E+00  0.00000000E+00
  0.00000000E+00  0.00000000E+00  0.00000000E+00
  0.00000000E+00  0.00000000E+00  0.00000000E+00
  0.00000000E+00  0.00000000E+00  0.00000000E+00
  0.00000000E+00  0.00000000E+00  0.00000000E+00
  0.00000000E+00  0.00000000E+00  0.00000000E+00
  0.00000000E+00  0.00000000E+00  0.00000000E+00
  0.00000000E+00  0.00000000E+00  0.00000000E+00
  0.00000000E+00  0.00000000E+00  0.00000000E+00
  0.00000000E+00  0.00000000E+00  0.00000000E+00
  0.00000000E+00  0.00000000E+00  0.00000000E+00
  0.00000000E+00  0.00000000E+00  0.00000000E+00
  0.00000000E+00  0.00000000E+00  0.00000000E+00
  0.00000000E+00  0.00000000E+00  0.00000000E+00
  0.00000000E+00  0.00000000E+00  0.00000000E+00
  0.00000000E+00  0.00000000E+00  0.00000000E+00
  0.00000000E+00  0.00000000E+00  0.00000000E+00
  0.00000000E+00  0.00000000E+00  0.00000000E+00
  0.00000000E+00  0.00000000E+00  0.00000000E+00
  0.00000000E+00  0.00000000E+00  0.00000000E+00
  0.00000000E+00  0.00000000E+00  0.00000000E+00
  0.00000000E+00  0.00000000E+00  0.00000000E+00
  0.00000000E+00  0.00000000E+00  0.00000000E+00
  0.00000000E+00  0.00000000E+00  0.00000000E+00
  0.00000000E+00  0.00000000E+00  0.00000000E+00
  0.00000000E+00  0.00000000E+00  0.00000000E+00
  0.00000000E+00  0.00000000E+00  0.00000000E+00
  0.00000000E+00  0.00000000E+00  0.00000000E+00
  0.00000000E+00  0.00000000E+00  0.00000000E+00
  0.00000000E+00  0.00000000E+00  0.00000000E+00
  0.00000000E+00  0.00000000E+00  0.00000000E+00
  0.00000000E+00  0.00000000E+00  0.00000000E+00
  0.00000000E+00  0.00000000E+00  0.00000000E+00
  0.00000000E+00  0.00000000E+00  0.00000000E+00
  0.00000000E+00  0.00000000E+00  0.00000000E+00
  0.00000000E+00  0.00000000E+00  0.00000000E+00
  0.00000000E+00  0.00000000E+00  0.00000000E+00
  0.00000000E+00  0.00000000E+00  0.00000000E+00
  0.00000000E+00  0.00000000E+00  0.00000000E+00
  0.00000000E+00  0.00000000E+00  0.00000000E+00
  0.00000000E+00  0.00000000E+00  0.00000000E+00
  0.00000000E+00  0.00000000E+00  0.00000000E+00
  0.00000000E+00  0.00000000E+00  0.00000000E+00
  0.00000000E+00  0.00000000E+00  0.00000000E+00
  0.00000000E+00  0.00000000E+00  0.00000000E+00
