 Ti3C2\(2)                              
   1.00000000000000     
     6.1872000694000002    0.0000000000000000    0.0000000000000000
    -3.0936000347000001    5.3582724384000002    0.0000000000000000
     0.0000000000000000    0.0000000000000000   30.0000000000000000
   Ti   C    F    Li
    24    16    16     1
Selective dynamics
Direct
  0.1666699949999995  0.3333300050000005  0.1620416716666639   F   F   F
  0.1666699949999995  0.8333299760000017  0.1620416716666639   F   F   F
  0.6666700239999983  0.3333300050000005  0.1620416716666639   F   F   F
  0.6666700239999983  0.8333299760000017  0.1620416716666639   F   F   F
  0.0000000000000000  0.0000000000000000  0.2423000083333307   F   F   F
  0.0000000000000000  0.5000000000000000  0.2423000083333307   F   F   F
  0.5000000000000000  0.0000000000000000  0.2423000083333307   F   F   F
  0.5000000000000000  0.5000000000000000  0.2423000083333307   F   F   F
  0.3333300050000005  0.1666699949999995  0.3225499891666672   F   F   F
  0.3333300050000005  0.6666700239999983  0.3225499891666672   F   F   F
  0.8333299760000017  0.1666699949999995  0.3225499891666672   F   F   F
  0.8333299760000017  0.6666700239999983  0.3225499891666672   F   F   F
  0.3306535114660818  0.1653264520710991  0.5059331618218366   T   T   T
  0.3333332639925430  0.6666667650074558  0.5048388261063366   T   T   T
  0.8346725128858381  0.1653274581141631  0.5059329364498666   T   T   T
  0.8346735189289021  0.6693465175339171  0.5059331618218366   T   T   T
  0.9999999676616156  0.0000000323383844  0.5849655645827241   T   T   T
  0.0001425807493831  0.5000707030020237  0.5849182821807943   T   T   T
  0.4999292969979763  0.9998574192506169  0.5849182821807943   T   T   T
  0.4999289610379805  0.5000710389620266  0.5849182458616582   T   T   T
  0.1665233246280806  0.3330448605338390  0.6648371321230542   T   T   T
  0.1665231780879779  0.8334767929120233  0.6648371595541249   T   T   T
  0.6666672696801541  0.3333327593198447  0.6648677182053575   T   T   T
  0.6669551684661599  0.8334766463719205  0.6648371321230542   T   T   T
  0.3333300050000005  0.1666699949999995  0.1986583325000026   F   F   F
  0.3333300050000005  0.6666700239999983  0.1986583325000026   F   F   F
  0.8333299760000017  0.1666699949999995  0.1986583325000026   F   F   F
  0.8333299760000017  0.6666700239999983  0.1986583325000026   F   F   F
  0.1666699949999995  0.3333300050000005  0.2859333408333313   F   F   F
  0.1666699949999995  0.8333299760000017  0.2859333408333313   F   F   F
  0.6666700239999983  0.3333300050000005  0.2859333408333313   F   F   F
  0.6666700239999983  0.8333299760000017  0.2859333408333313   F   F   F
  0.1682019578087974  0.3364049186760383  0.5410510541932538   T   T   T
  0.1682025353863565  0.8317974356136446  0.5410512231850504   T   T   T
  0.6666665663808260  0.3333334626191728  0.5414668699340837   T   T   T
  0.6635951103239606  0.8317980131912037  0.5410510541932538   T   T   T
  0.3337616996189610  0.1668800644753361  0.6284636385386051   T   T   T
  0.3333337903169138  0.6666662386830851  0.6285290839932571   T   T   T
  0.8331196601089630  0.1668803108910453  0.6284636109186010   T   T   T
  0.8331199065246651  0.6662383293810379  0.6284636385386051   T   T   T
  0.0000000000000000  0.0000000000000000  0.1203750000000028   F   F   F
  0.0000000000000000  0.5000000000000000  0.1203750000000028   F   F   F
  0.5000000000000000  0.0000000000000000  0.1203750000000028   F   F   F
  0.5000000000000000  0.5000000000000000  0.1203750000000028   F   F   F
  0.0000000000000000  0.0000000000000000  0.3642166666666640   F   F   F
  0.0000000000000000  0.5000000000000000  0.3642166666666640   F   F   F
  0.5000000000000000  0.0000000000000000  0.3642166666666640   F   F   F
  0.5000000000000000  0.5000000000000000  0.3642166666666640   F   F   F
  0.9999998415727234  0.0000001584272766  0.4619474672613109   T   T   T
  0.9722165065790804  0.4861113380174942  0.4582375348489407   T   T   T
  0.5138886619825058  0.0277834934209196  0.4582375348489407   T   T   T
  0.5138867845487738  0.4861132154512262  0.4582379023550516   T   T   T
  0.0000007850338335  0.9999992149661665  0.7070895846558400   T   T   T
  0.0003025775881937  0.5001503349747054  0.7070869961588997   T   T   T
  0.4998496650252946  0.9996974224118063  0.7070869961588997   T   T   T
  0.4998497325174185  0.5001502674825815  0.7070870655247319   T   T   T
  0.6666584024680375  0.3333406142880122  0.4197684613155133   T   T   T
 
  0.00000000E+00  0.00000000E+00  0.00000000E+00
  0.00000000E+00  0.00000000E+00  0.00000000E+00
  0.00000000E+00  0.00000000E+00  0.00000000E+00
  0.00000000E+00  0.00000000E+00  0.00000000E+00
  0.00000000E+00  0.00000000E+00  0.00000000E+00
  0.00000000E+00  0.00000000E+00  0.00000000E+00
  0.00000000E+00  0.00000000E+00  0.00000000E+00
  0.00000000E+00  0.00000000E+00  0.00000000E+00
  0.00000000E+00  0.00000000E+00  0.00000000E+00
  0.00000000E+00  0.00000000E+00  0.00000000E+00
  0.00000000E+00  0.00000000E+00  0.00000000E+00
  0.00000000E+00  0.00000000E+00  0.00000000E+00
  0.00000000E+00  0.00000000E+00  0.00000000E+00
  0.00000000E+00  0.00000000E+00  0.00000000E+00
  0.00000000E+00  0.00000000E+00  0.00000000E+00
  0.00000000E+00  0.00000000E+00  0.00000000E+00
  0.00000000E+00  0.00000000E+00  0.00000000E+00
  0.00000000E+00  0.00000000E+00  0.00000000E+00
  0.00000000E+00  0.00000000E+00  0.00000000E+00
  0.00000000E+00  0.00000000E+00  0.00000000E+00
  0.00000000E+00  0.00000000E+00  0.00000000E+00
  0.00000000E+00  0.00000000E+00  0.00000000E+00
  0.00000000E+00  0.00000000E+00  0.00000000E+00
  0.00000000E+00  0.00000000E+00  0.00000000E+00
  0.00000000E+00  0.00000000E+00  0.00000000E+00
  0.00000000E+00  0.00000000E+00  0.00000000E+00
  0.00000000E+00  0.00000000E+00  0.00000000E+00
  0.00000000E+00  0.00000000E+00  0.00000000E+00
  0.00000000E+00  0.00000000E+00  0.00000000E+00
  0.00000000E+00  0.00000000E+00  0.00000000E+00
  0.00000000E+00  0.00000000E+00  0.00000000E+00
  0.00000000E+00  0.00000000E+00  0.00000000E+00
  0.00000000E+00  0.00000000E+00  0.00000000E+00
  0.00000000E+00  0.00000000E+00  0.00000000E+00
  0.00000000E+00  0.00000000E+00  0.00000000E+00
  0.00000000E+00  0.00000000E+00  0.00000000E+00
  0.00000000E+00  0.00000000E+00  0.00000000E+00
  0.00000000E+00  0.00000000E+00  0.00000000E+00
  0.00000000E+00  0.00000000E+00  0.00000000E+00
  0.00000000E+00  0.00000000E+00  0.00000000E+00
  0.00000000E+00  0.00000000E+00  0.00000000E+00
  0.00000000E+00  0.00000000E+00  0.00000000E+00
  0.00000000E+00  0.00000000E+00  0.00000000E+00
  0.00000000E+00  0.00000000E+00  0.00000000E+00
  0.00000000E+00  0.00000000E+00  0.00000000E+00
  0.00000000E+00  0.00000000E+00  0.00000000E+00
  0.00000000E+00  0.00000000E+00  0.00000000E+00
  0.00000000E+00  0.00000000E+00  0.00000000E+00
  0.00000000E+00  0.00000000E+00  0.00000000E+00
  0.00000000E+00  0.00000000E+00  0.00000000E+00
  0.00000000E+00  0.00000000E+00  0.00000000E+00
  0.00000000E+00  0.00000000E+00  0.00000000E+00
  0.00000000E+00  0.00000000E+00  0.00000000E+00
  0.00000000E+00  0.00000000E+00  0.00000000E+00
  0.00000000E+00  0.00000000E+00  0.00000000E+00
  0.00000000E+00  0.00000000E+00  0.00000000E+00
  0.00000000E+00  0.00000000E+00  0.00000000E+00
