Li2 La2 Ti2 O8                          
   1.00000000000000     
     3.7805852412778784    0.0000000000000000   -0.0000000000000000
    -0.0000000000000000    3.7805852412778784   -0.0000000000000000
    -0.0000000000000000   -0.0000000000000000   12.0167665619564090
   Li   La   Ti   O 
     2     2     2     8
Direct
  0.5000000000000000  0.5000000000000000  0.5000000000000000
 -0.0000000000000000 -0.0000000000000000  0.5000000000000000
  0.0000000000000000  0.5000000000000000  0.1189302855576735
  0.5000000000000000 -0.0000000000000000  0.8810697444423219
 -0.0000000000000000  0.5000000000000000  0.7046136957884720
  0.5000000000000000  0.0000000000000000  0.2953862742115259
 -0.0000000000000000  0.5000000000000000  0.9230014415338768
  0.5000000000000000  0.0000000000000000  0.0769985284661208
 -0.0000000000000000  0.5000000000000000  0.5546634165398648
  0.5000000000000000  0.0000000000000000  0.4453365834601352
 -0.0000000000000000 -0.0000000000000000  0.7430292712933795
  0.5000000000000000  0.5000000000000000  0.7430292712933795
  0.5000000000000000  0.5000000000000000  0.2569706987066181
  0.0000000000000000  0.0000000000000000  0.2569706987066181
 
  0.00000000E+00  0.00000000E+00  0.00000000E+00
  0.00000000E+00  0.00000000E+00  0.00000000E+00
  0.00000000E+00  0.00000000E+00  0.00000000E+00
  0.00000000E+00  0.00000000E+00  0.00000000E+00
  0.00000000E+00  0.00000000E+00  0.00000000E+00
  0.00000000E+00  0.00000000E+00  0.00000000E+00
  0.00000000E+00  0.00000000E+00  0.00000000E+00
  0.00000000E+00  0.00000000E+00  0.00000000E+00
  0.00000000E+00  0.00000000E+00  0.00000000E+00
  0.00000000E+00  0.00000000E+00  0.00000000E+00
  0.00000000E+00  0.00000000E+00  0.00000000E+00
  0.00000000E+00  0.00000000E+00  0.00000000E+00
  0.00000000E+00  0.00000000E+00  0.00000000E+00
  0.00000000E+00  0.00000000E+00  0.00000000E+00
