W4 O12                                  
   1.00000000000000     
     5.5351422327332518   -0.0000066106818032    0.0730466110059784
     0.0000416669773669    5.5485871753440996   -0.0055700051828328
    -0.1007771698957070   -0.0080302300958448    7.6831159077682241
   W    O    Li
     4    12     1
Direct
  0.2500085665446719  0.7318736602209768  0.2431538663210162
  0.7499274481749580  0.2900792742085798  0.7464457029193525
  0.7500135606441205  0.2320299408438942  0.2449395609235054
  0.2500517716432640  0.7900132741740364  0.7441783109641946
  0.0006624140322771  0.0040464964222764  0.7445455476127520
  0.9923362418054680  0.9820184470198399  0.2501615228388161
  0.9984612267732444  0.5052891042243459  0.7478484367393818
  0.9972156959885368  0.4925904652517161  0.2469033425298477
  0.2500042277453005  0.7535706851619963  0.9971828725820799
  0.7500048377273458  0.2477401121846299  0.9976033778302380
  0.7499923747313062  0.2548788996414046  0.4956722262775344
  0.2499941734555335  0.7481066524553910  0.4953466427922990
  0.5076722302599350  0.9820159888270155  0.2501546361261617
  0.5003220042779546  0.0030772469286404  0.7445224029713202
  0.5027869572570793  0.4925904828262020  0.2469016761191227
  0.5005474980189177  0.5043188863469652  0.7478710842332958
  0.7499988309200916  0.7357603942621012  0.3065687892190638
 
  0.00000000E+00  0.00000000E+00  0.00000000E+00
  0.00000000E+00  0.00000000E+00  0.00000000E+00
  0.00000000E+00  0.00000000E+00  0.00000000E+00
  0.00000000E+00  0.00000000E+00  0.00000000E+00
  0.00000000E+00  0.00000000E+00  0.00000000E+00
  0.00000000E+00  0.00000000E+00  0.00000000E+00
  0.00000000E+00  0.00000000E+00  0.00000000E+00
  0.00000000E+00  0.00000000E+00  0.00000000E+00
  0.00000000E+00  0.00000000E+00  0.00000000E+00
  0.00000000E+00  0.00000000E+00  0.00000000E+00
  0.00000000E+00  0.00000000E+00  0.00000000E+00
  0.00000000E+00  0.00000000E+00  0.00000000E+00
  0.00000000E+00  0.00000000E+00  0.00000000E+00
  0.00000000E+00  0.00000000E+00  0.00000000E+00
  0.00000000E+00  0.00000000E+00  0.00000000E+00
  0.00000000E+00  0.00000000E+00  0.00000000E+00
  0.00000000E+00  0.00000000E+00  0.00000000E+00
