Mo4 O12                                 
   1.00000000000000     
    15.2161208263574999    0.0000000000000000   -0.0240919637219734
     0.0000000000000000    3.7811872516403153    0.0000000000000000
     0.0059084938998513    0.0000000000000000    3.8120438533584493
   Mo   O    Li
     4    12     1
Direct
  0.1076313987447577  0.2500000000000000  0.0146370149704396
  0.9114169934919758  0.7500000000000000  0.0147030391498788
  0.3842317383712981  0.7500000000000000  0.5147076930668248
  0.5795783957475038  0.2500000000000000  0.5147318569292310
  0.0666010118766991  0.7500000000000000  0.0146887040726327
  0.9395973305956886  0.2500000000000000  0.0147082483632914
  0.4243198163776043  0.2500000000000000  0.5147383707121449
  0.5536454337000905  0.7500000000000000  0.5147416486088261
  0.0894775975012863  0.2500000000000000  0.5146729128491785
  0.9190940310420217  0.7500000000000000  0.5147050302299547
  0.4027038250387704  0.7500000000000000  0.0147366853573203
  0.5665664869368143  0.2500000000000000  0.0147386854616656
  0.2187264674815950  0.2500000000000000  0.0146714067794989
  0.7952246620712558  0.7500000000000000  0.0146908265226102
  0.2731572400299171  0.7500000000000000  0.5147379159190280
  0.6954395333773675  0.2500000000000000  0.5147378981871427
  0.7525880436153329  0.7500000000000000  0.5146520408203372
 
  0.00000000E+00  0.00000000E+00  0.00000000E+00
  0.00000000E+00  0.00000000E+00  0.00000000E+00
  0.00000000E+00  0.00000000E+00  0.00000000E+00
  0.00000000E+00  0.00000000E+00  0.00000000E+00
  0.00000000E+00  0.00000000E+00  0.00000000E+00
  0.00000000E+00  0.00000000E+00  0.00000000E+00
  0.00000000E+00  0.00000000E+00  0.00000000E+00
  0.00000000E+00  0.00000000E+00  0.00000000E+00
  0.00000000E+00  0.00000000E+00  0.00000000E+00
  0.00000000E+00  0.00000000E+00  0.00000000E+00
  0.00000000E+00  0.00000000E+00  0.00000000E+00
  0.00000000E+00  0.00000000E+00  0.00000000E+00
  0.00000000E+00  0.00000000E+00  0.00000000E+00
  0.00000000E+00  0.00000000E+00  0.00000000E+00
  0.00000000E+00  0.00000000E+00  0.00000000E+00
  0.00000000E+00  0.00000000E+00  0.00000000E+00
  0.00000000E+00  0.00000000E+00  0.00000000E+00
