 vasp.6.4.2 20Jul23 (build Nov 13 2023 15:27:39) complex                        
  
 executed on             LinuxIFC date 2026.07.03  23:45:45
 running   64 mpi-ranks, on    1 nodes
 distrk:  each k-point on   64 cores,    1 groups
 distr:  one band on NCORE=  16 cores,    4 groups


--------------------------------------------------------------------------------------------------------


 INCAR:
   SYSTEM = C48H56N8
   EDIFF = 0.1E-7
   EDIFFG = -0.001
   NSW = 300
   IBRION = 2
   POTIM = 0.2
   ISIF = 3
   ISMEAR = 0
   SIGMA = 0.05
   ENCUT = 600
   PREC = accurate
   LREAL = .FALSE.
   ALGO = normal
   ISPIN = 2
   LWAVE = .F.
   LCHARG = .F.
   IVDW = 11
   NPAR = 4
   LORBIT = 11
   LMAXMIX = 4
   MAGMOM = 4*1 4*1 4*1 20*1

 POTCAR:    PAW_PBE Li 17Jan2003                  
 POTCAR:    PAW_PBE Ti 08Apr2002                  
 POTCAR:    PAW_PBE P 06Sep2000                   
 POTCAR:    PAW_PBE O 08Apr2002                   
 POTCAR:    PAW_PBE Li 17Jan2003                  
   VRHFIN =Li: s1p0                                                                                 
   LEXCH  = PE                                                                                      
   EATOM  =     5.3001 eV,    0.3895 Ry                                                             
                                                                                                    
   TITEL  = PAW_PBE Li 17Jan2003                                                                    
   LULTRA =        F    use ultrasoft PP ?                                                          
   IUNSCR =        1    unscreen: 0-lin 1-nonlin 2-no                                               
   RPACOR =    1.500    partial core radius                                                         
   POMASS =    7.010; ZVAL   =    1.000    mass and valenz                                          
   RCORE  =    2.050    outmost cutoff radius                                                       
   RWIGS  =    2.600; RWIGS  =    1.376    wigner-seitz radius (au A)                               
   ENMAX  =  140.000; ENMIN  =  100.000 eV                                                          
   ICORE  =        2    local potential                                                             
   LCOR   =        T    correct aug charges                                                         
   LPAW   =        T    paw PP                                                                      
   EAUG   =  331.638                                                                                
   DEXC   =    0.000                                                                                
   RMAX   =    2.098    core radius for proj-oper                                                   
   RAUG   =    1.300    factor for augmentation sphere                                              
   RDEP   =    2.094    radius for radial grids                                                     
   RDEPT  =    1.810    core radius for aug-charge                                                  
                                                                                                    
   Atomic configuration                                                                             
    4 entries                                                                                       
     n  l   j            E        occ.                                                              
     1  0  0.50       -51.8549   2.0000                                                             
     2  0  0.50        -2.8742   1.0000                                                             
     2  1  0.50        -1.3606   0.0000                                                             
     3  2  1.50        -1.3606   0.0000                                                             
   Description                                                                                      
     l       E           TYP  RCUT    TYP  RCUT                                                     
     0     -2.8742052     23  2.050                                                                 
     0     27.2116520     23  2.050                                                                 
     1     -1.3605826     23  2.050                                                                 
     2     -1.3605826     23  2.050                                                                 
  local pseudopotential read in
  partial core-charges read in
  partial kinetic energy density read in
  atomic valenz-charges read in
  non local Contribution for L=           0  read in
    real space projection operators read in
  non local Contribution for L=           0  read in
    real space projection operators read in
  non local Contribution for L=           1  read in
    real space projection operators read in
    PAW grid and wavefunctions read in
 
   number of l-projection  operators is LMAX  =           3
   number of lm-projection operators is LMMAX =           5
 
 POTCAR:    PAW_PBE Ti 08Apr2002                  
   VRHFIN =Ti: d3 s1                                                                                
   LEXCH  = PE                                                                                      
   EATOM  =    94.7928 eV,    6.9671 Ry                                                             
                                                                                                    
   TITEL  = PAW_PBE Ti 08Apr2002                                                                    
   LULTRA =        F    use ultrasoft PP ?                                                          
   IUNSCR =        1    unscreen: 0-lin 1-nonlin 2-no                                               
   RPACOR =    2.200    partial core radius                                                         
   POMASS =   47.880; ZVAL   =    4.000    mass and valenz                                          
   RCORE  =    2.800    outmost cutoff radius                                                       
   RWIGS  =    2.500; RWIGS  =    1.323    wigner-seitz radius (au A)                               
   ENMAX  =  178.330; ENMIN  =  133.747 eV                                                          
   RCLOC  =    2.215    cutoff for local pot                                                        
   LCOR   =        T    correct aug charges                                                         
   LPAW   =        T    paw PP                                                                      
   EAUG   =  328.883                                                                                
   DEXC   =    0.000                                                                                
   RMAX   =    2.868    core radius for proj-oper                                                   
   RAUG   =    1.300    factor for augmentation sphere                                              
   RDEP   =    2.885    radius for radial grids                                                     
   RDEPT  =    2.320    core radius for aug-charge                                                  
                                                                                                    
   Atomic configuration                                                                             
    9 entries                                                                                       
     n  l   j            E        occ.                                                              
     1  0  0.50     -4865.3608   2.0000                                                             
     2  0  0.50      -533.1367   2.0000                                                             
     2  1  1.50      -440.5031   6.0000                                                             
     3  0  0.50       -59.3186   2.0000                                                             
     3  1  1.50       -35.7012   6.0000                                                             
     3  2  2.50        -1.9157   3.0000                                                             
     4  0  0.50        -3.7291   1.0000                                                             
     4  1  1.50        -4.0817   0.0000                                                             
     4  3  2.50        -1.3606   0.0000                                                             
   Description                                                                                      
     l       E           TYP  RCUT    TYP  RCUT                                                     
     2     -1.9156924     23  2.800                                                                 
     2     -0.4062961     23  2.800                                                                 
     0     -3.7290832     23  2.800                                                                 
     0     20.4087390     23  2.800                                                                 
     1     -5.4423304     23  2.800                                                                 
  local pseudopotential read in
  partial core-charges read in
  partial kinetic energy density read in
  atomic valenz-charges read in
  non local Contribution for L=           2  read in
    real space projection operators read in
  non local Contribution for L=           2  read in
    real space projection operators read in
  non local Contribution for L=           0  read in
    real space projection operators read in
  non local Contribution for L=           0  read in
    real space projection operators read in
  non local Contribution for L=           1  read in
    real space projection operators read in
    PAW grid and wavefunctions read in
 
   number of l-projection  operators is LMAX  =           5
   number of lm-projection operators is LMMAX =          15
 
 POTCAR:    PAW_PBE P 06Sep2000                   
   VRHFIN =P : s2p3                                                                                 
   LEXCH  = PE                                                                                      
   EATOM  =   176.0430 eV,   12.9388 Ry                                                             
                                                                                                    
   TITEL  = PAW_PBE P 06Sep2000                                                                     
   LULTRA =        F    use ultrasoft PP ?                                                          
   IUNSCR =        1    unscreen: 0-lin 1-nonlin 2-no                                               
   RPACOR =    1.500    partial core radius                                                         
   POMASS =   30.974; ZVAL   =    5.000    mass and valenz                                          
   RCORE  =    1.900    outmost cutoff radius                                                       
   RWIGS  =    2.330; RWIGS  =    1.233    wigner-seitz radius (au A)                               
   ENMAX  =  255.040; ENMIN  =  191.280 eV                                                          
   ICORE  =        2    local potential                                                             
   LCOR   =        T    correct aug charges                                                         
   LPAW   =        T    paw PP                                                                      
   EAUG   =  342.924                                                                                
   DEXC   =    0.000                                                                                
   RMAX   =    1.935    core radius for proj-oper                                                   
   RAUG   =    1.300    factor for augmentation sphere                                              
   RDEP   =    1.931    radius for radial grids                                                     
   RDEPT  =    1.794    core radius for aug-charge                                                  
                                                                                                    
   Atomic configuration                                                                             
    6 entries                                                                                       
     n  l   j            E        occ.                                                              
     1  0  0.50     -2084.0982   2.0000                                                             
     2  0  0.50      -173.9859   2.0000                                                             
     2  1  1.50      -124.4865   6.0000                                                             
     3  0  0.50       -13.9692   2.0000                                                             
     3  1  0.50        -5.5067   3.0000                                                             
     3  2  1.50        -5.4423   0.0000                                                             
   Description                                                                                      
     l       E           TYP  RCUT    TYP  RCUT                                                     
     0    -13.9691527     23  1.900                                                                 
     0    -11.7794650     23  1.900                                                                 
     1     -5.5066937     23  1.900                                                                 
     1     -0.2556953     23  1.900                                                                 
     2     -5.4423304     23  1.900                                                                 
  local pseudopotential read in
  partial core-charges read in
  partial kinetic energy density read in
  atomic valenz-charges read in
  non local Contribution for L=           0  read in
    real space projection operators read in
  non local Contribution for L=           0  read in
    real space projection operators read in
  non local Contribution for L=           1  read in
    real space projection operators read in
  non local Contribution for L=           1  read in
    real space projection operators read in
    PAW grid and wavefunctions read in
 
   number of l-projection  operators is LMAX  =           4
   number of lm-projection operators is LMMAX =           8
 
 POTCAR:    PAW_PBE O 08Apr2002                   
   VRHFIN =O: s2p4                                                                                  
   LEXCH  = PE                                                                                      
   EATOM  =   432.3788 eV,   31.7789 Ry                                                             
                                                                                                    
   TITEL  = PAW_PBE O 08Apr2002                                                                     
   LULTRA =        F    use ultrasoft PP ?                                                          
   IUNSCR =        1    unscreen: 0-lin 1-nonlin 2-no                                               
   RPACOR =    1.200    partial core radius                                                         
   POMASS =   16.000; ZVAL   =    6.000    mass and valenz                                          
   RCORE  =    1.520    outmost cutoff radius                                                       
   RWIGS  =    1.550; RWIGS  =    0.820    wigner-seitz radius (au A)                               
   ENMAX  =  400.000; ENMIN  =  300.000 eV                                                          
   ICORE  =        2    local potential                                                             
   LCOR   =        T    correct aug charges                                                         
   LPAW   =        T    paw PP                                                                      
   EAUG   =  605.392                                                                                
   DEXC   =    0.000                                                                                
   RMAX   =    1.553    core radius for proj-oper                                                   
   RAUG   =    1.300    factor for augmentation sphere                                              
   RDEP   =    1.550    radius for radial grids                                                     
   RDEPT  =    1.329    core radius for aug-charge                                                  
                                                                                                    
   Atomic configuration                                                                             
    4 entries                                                                                       
     n  l   j            E        occ.                                                              
     1  0  0.50      -514.6923   2.0000                                                             
     2  0  0.50       -23.9615   2.0000                                                             
     2  1  0.50        -9.0305   4.0000                                                             
     3  2  1.50        -9.5241   0.0000                                                             
   Description                                                                                      
     l       E           TYP  RCUT    TYP  RCUT                                                     
     0    -23.9615318     23  1.200                                                                 
     0     -9.5240782     23  1.200                                                                 
     1     -9.0304911     23  1.520                                                                 
     1      8.1634956     23  1.520                                                                 
     2     -9.5240782      7  1.500                                                                 
  local pseudopotential read in
  partial core-charges read in
  partial kinetic energy density read in
  kinetic energy density of atom read in
  atomic valenz-charges read in
  non local Contribution for L=           0  read in
    real space projection operators read in
  non local Contribution for L=           0  read in
    real space projection operators read in
  non local Contribution for L=           1  read in
    real space projection operators read in
  non local Contribution for L=           1  read in
    real space projection operators read in
    PAW grid and wavefunctions read in
 
   number of l-projection  operators is LMAX  =           4
   number of lm-projection operators is LMMAX =           8
 
 -----------------------------------------------------------------------------
|                                                                             |
|               ----> ADVICE to this user running VASP <----                  |
|                                                                             |
|     You have a (more or less) 'large supercell' and for larger cells it     |
|     might be more efficient to use real-space projection operators.         |
|     Therefore, try LREAL= Auto in the INCAR file.                           |
|     Mind: For very accurate calculation, you might also keep the            |
|     reciprocal projection scheme (i.e. LREAL=.FALSE.).                      |
|                                                                             |
 -----------------------------------------------------------------------------

  PAW_PBE Li 17Jan2003                  :
 energy of atom  1       EATOM=   -5.3001
 kinetic energy error for atom=    0.0000 (will be added to EATOM!!)
  PAW_PBE Ti 08Apr2002                  :
 energy of atom  2       EATOM=  -94.7928
 kinetic energy error for atom=    0.0001 (will be added to EATOM!!)
  PAW_PBE P 06Sep2000                   :
 energy of atom  3       EATOM= -176.0430
 kinetic energy error for atom=    0.0006 (will be added to EATOM!!)
  PAW_PBE O 08Apr2002                   :
 energy of atom  4       EATOM= -432.3788
 kinetic energy error for atom=    0.0168 (will be added to EATOM!!)
 
 
 POSCAR: Li4 Ti4 P4 O20
  positions in direct lattice
  velocities in cartesian coordinates
 exchange correlation table for  LEXCH =        8
   RHO(1)=    0.500       N(1)  =     2000
   RHO(2)=  100.500       N(2)  =     4000

 VTST: version 4.1, (05/19/21)

 CHAIN: initializing optimizer
 
 OPT: Using VASP Conjugate-Gradient optimizer
 CHAIN: Read ICHAIN            0
 
 POSCAR: Li4 Ti4 P4 O20
  positions in direct lattice
  velocities in cartesian coordinates
 


--------------------------------------------------------------------------------------------------------


 ion  position               nearest neighbor table
   1  0.000  0.000  0.000-  15 2.04  19 2.04  21 2.13  22 2.13  26 2.21  25 2.21   6 2.85   5 2.85
                             4 3.22   4 3.22
   2  0.500  0.500  0.500-  18 2.04  16 2.04  23 2.13  24 2.13  28 2.21  27 2.21   8 2.85   7 2.85
                             3 3.22   3 3.22
   3  0.000  0.500  0.500-  13 2.04  17 2.04  23 2.13  24 2.13  28 2.21  27 2.21   8 2.85   7 2.85
                             2 3.22   2 3.22
   4  0.500  0.000  0.000-  20 2.04  14 2.04  21 2.13  22 2.13  26 2.21  25 2.21   6 2.85   5 2.85
                             1 3.22   1 3.22
   5  0.750  0.278  0.839-  24 1.76  30 1.91  20 2.00  15 2.00  25 2.07  21 2.19   1 2.85   4 2.85

   6  0.250  0.722  0.161-  23 1.76  29 1.91  14 2.00  19 2.00  26 2.07  22 2.19   1 2.85   4 2.85

   7  0.250  0.778  0.661-  22 1.76  32 1.91  13 2.00  18 2.00  27 2.07  23 2.19   2 2.85   3 2.85

   8  0.750  0.222  0.339-  21 1.76  31 1.91  16 2.00  17 2.00  28 2.07  24 2.19   2 2.85   3 2.85

   9  0.250  0.370  0.874-  15 1.54  20 1.54  29 1.55  27 1.55
  10  0.750  0.630  0.126-  14 1.54  19 1.54  30 1.55  28 1.55
  11  0.750  0.870  0.626-  13 1.54  18 1.54  31 1.55  25 1.55
  12  0.250  0.130  0.374-  17 1.54  16 1.54  32 1.55  26 1.55
  13  0.943  0.744  0.628-  11 1.54   7 2.00   3 2.04
  14  0.557  0.756  0.128-  10 1.54   6 2.00   4 2.04
  15  0.057  0.244  0.872-   9 1.54   5 2.00   1 2.04
  16  0.443  0.256  0.372-  12 1.54   8 2.00   2 2.04
  17  0.057  0.256  0.372-  12 1.54   8 2.00   3 2.04
  18  0.557  0.744  0.628-  11 1.54   7 2.00   2 2.04
  19  0.943  0.756  0.128-  10 1.54   6 2.00   1 2.04
  20  0.443  0.244  0.872-   9 1.54   5 2.00   4 2.04
  21  0.750  0.156  0.109-   8 1.76   4 2.13   1 2.13   5 2.19
  22  0.250  0.844  0.891-   7 1.76   4 2.13   1 2.13   6 2.19
  23  0.250  0.656  0.391-   6 1.76   3 2.13   2 2.13   7 2.19
  24  0.750  0.344  0.609-   5 1.76   3 2.13   2 2.13   8 2.19
  25  0.750  0.996  0.795-  11 1.55   5 2.07   1 2.21   4 2.21
  26  0.250  0.004  0.205-  12 1.55   6 2.07   1 2.21   4 2.21
  27  0.250  0.496  0.705-   9 1.55   7 2.07   2 2.21   3 2.21
  28  0.750  0.504  0.295-  10 1.55   8 2.07   2 2.21   3 2.21
  29  0.250  0.484  0.050-   9 1.55   6 1.91
  30  0.750  0.516  0.950-  10 1.55   5 1.91
  31  0.750  0.984  0.450-  11 1.55   8 1.91
  32  0.250  0.016  0.550-  12 1.55   7 1.91
 
  LATTYP: Found a simple orthorhombic cell.
 ALAT       =     6.4308102567
 B/A-ratio  =     1.1300144232
 C/A-ratio  =     1.1499963918
  
  Lattice vectors:
  
 A1 = (   6.4308102567,   0.0000000000,   0.0000000000)
 A2 = (   0.0000000000,   7.2669083430,   0.0000000000)
 A3 = (   0.0000000000,   0.0000000000,   7.3954085916)


Analysis of symmetry for initial positions (statically):
=====================================================================
 Subroutine PRICEL returns:
 Original cell was already a primitive cell.
 

 Routine SETGRP: Setting up the symmetry group for a 
 simple orthorhombic supercell.


 Subroutine GETGRP returns: Found  8 space group operations
 (whereof  2 operations were pure point group operations)
 out of a pool of  8 trial point group operations.


The static configuration has the point symmetry S_2 .
 The point group associated with its full space group is D_2h.


Analysis of symmetry for dynamics (positions and initial velocities):
=====================================================================
 Subroutine PRICEL returns:
 Original cell was already a primitive cell.
 

 Routine SETGRP: Setting up the symmetry group for a 
 simple orthorhombic supercell.


 Subroutine GETGRP returns: Found  8 space group operations
 (whereof  2 operations were pure point group operations)
 out of a pool of  8 trial point group operations.


The dynamic configuration has the point symmetry S_2 .
 The point group associated with its full space group is D_2h.


Analysis of structural, dynamic, and magnetic symmetry:
=====================================================================
 Subroutine PRICEL returns:
 Original cell was already a primitive cell.
 

 Routine SETGRP: Setting up the symmetry group for a 
 simple orthorhombic supercell.


 Subroutine GETGRP returns: Found  8 space group operations
 (whereof  2 operations were pure point group operations)
 out of a pool of  8 trial point group operations.


The overall configuration has the point symmetry S_2 .
 The point group associated with its full space group is D_2h.


 Subroutine INISYM returns: Found  8 space group operations
 (whereof  2 operations are pure point group operations),
 and found     1 'primitive' translations


----------------------------------------------------------------------------------------

                                     Primitive cell                                     

  volume of cell :     345.6030

  direct lattice vectors                    reciprocal lattice vectors
     6.430810257  0.000000000  0.000000000     0.155501400  0.000000000  0.000000000
     0.000000000  7.266908343  0.000000000     0.000000000  0.137610102  0.000000000
     0.000000000  0.000000000  7.395408592     0.000000000  0.000000000  0.135219033

  length of vectors
     6.430810257  7.266908343  7.395408592     0.155501400  0.137610102  0.135219033

  position of ions in fractional coordinates (direct lattice)
     0.000000000  0.000000000  0.000000000
     0.500000000  0.500000000  0.500000000
     0.000000000  0.500000000  0.500000000
     0.500000000  0.000000000  0.000000000
     0.750000000  0.278146649  0.838555149
     0.250000000  0.721853351  0.161444836
     0.250000000  0.778146649  0.661444851
     0.750000000  0.221853351  0.338555179
     0.250000000  0.369676426  0.873794634
     0.750000000  0.630323603  0.126205381
     0.750000000  0.869676397  0.626205366
     0.250000000  0.130323574  0.373794634
     0.943160043  0.743940749  0.627933827
     0.556839957  0.756059251  0.127933842
     0.056839968  0.243940749  0.872066173
     0.443160043  0.256059251  0.372066144
     0.056839968  0.256059251  0.372066144
     0.556839957  0.743940749  0.627933827
     0.943160043  0.756059251  0.127933842
     0.443160043  0.243940749  0.872066173
     0.750000000  0.156150116  0.108898531
     0.250000000  0.843849884  0.891101454
     0.250000000  0.656150116  0.391101484
     0.750000000  0.343849884  0.608898546
     0.750000000  0.996415457  0.795228368
     0.250000000  0.003584535  0.204771617
     0.250000000  0.496415457  0.704771632
     0.750000000  0.503584543  0.295228397
     0.250000000  0.483990828  0.050212118
     0.750000000  0.516009172  0.949787905
     0.750000000  0.983990828  0.449787875
     0.250000000  0.016009166  0.550212095

  ion indices of the primitive-cell ions
   primitive index   ion index
                 1           1
                 2           2
                 3           3
                 4           4
                 5           5
                 6           6
                 7           7
                 8           8
                 9           9
                10          10
                11          11
                12          12
                13          13
                14          14
                15          15
                16          16
                17          17
                18          18
                19          19
                20          20
                21          21
                22          22
                23          23
                24          24
                25          25
                26          26
                27          27
                28          28
                29          29
                30          30
                31          31
                32          32

----------------------------------------------------------------------------------------

 
 
 KPOINTS: K-points                                

Automatic generation of k-mesh.
 Grid dimensions read from file:
 generate k-points for:    4    3    3

 Generating k-lattice:

  Cartesian coordinates                     Fractional coordinates (reciprocal lattice)
     0.038875350  0.000000000  0.000000000     0.250000000  0.000000000  0.000000000
     0.000000000  0.045870034  0.000000000     0.000000000  0.333333333  0.000000000
     0.000000000  0.000000000  0.045073011     0.000000000  0.000000000  0.333333333

  Length of vectors
     0.038875350  0.045870034  0.045073011

  Shift w.r.t. Gamma in fractional coordinates (k-lattice)
     0.000000000  0.000000000  0.000000000

 
 Subroutine IBZKPT returns following result:
 ===========================================
 
 Found     12 irreducible k-points:
 
 Following reciprocal coordinates:
            Coordinates               Weight
  0.000000  0.000000  0.000000      1.000000
  0.250000  0.000000  0.000000      2.000000
  0.500000  0.000000  0.000000      1.000000
  0.000000  0.333333  0.000000      2.000000
  0.250000  0.333333  0.000000      4.000000
  0.500000  0.333333  0.000000      2.000000
  0.000000  0.000000  0.333333      2.000000
  0.250000  0.000000  0.333333      4.000000
  0.500000  0.000000  0.333333      2.000000
  0.000000  0.333333  0.333333      4.000000
  0.250000  0.333333  0.333333      8.000000
  0.500000  0.333333  0.333333      4.000000
 
 Following cartesian coordinates:
            Coordinates               Weight
  0.000000  0.000000  0.000000      1.000000
  0.038875  0.000000  0.000000      2.000000
  0.077751  0.000000  0.000000      1.000000
  0.000000  0.045870  0.000000      2.000000
  0.038875  0.045870  0.000000      4.000000
  0.077751  0.045870  0.000000      2.000000
  0.000000  0.000000  0.045073      2.000000
  0.038875  0.000000  0.045073      4.000000
  0.077751  0.000000  0.045073      2.000000
  0.000000  0.045870  0.045073      4.000000
  0.038875  0.045870  0.045073      8.000000
  0.077751  0.045870  0.045073      4.000000
 


--------------------------------------------------------------------------------------------------------




 Dimension of arrays:
   k-points           NKPTS =     12   k-points in BZ     NKDIM =     12   number of bands    NBANDS=    116
   number of dos      NEDOS =    301   number of ions     NIONS =     32
   non local maximal  LDIM  =      5   non local SUM 2l+1 LMDIM =     15
   total plane-waves  NPLWV = 194400
   max r-space proj   IRMAX =      1   max aug-charges    IRDMAX=  39044
   dimension x,y,z NGX =    54 NGY =   60 NGZ =   60
   dimension x,y,z NGXF=   108 NGYF=  120 NGZF=  120
   support grid    NGXF=   108 NGYF=  120 NGZF=  120
   ions per type =               4   4   4  20
   NGX,Y,Z   is equivalent  to a cutoff of  13.96, 13.73, 13.49 a.u.
   NGXF,Y,Z  is equivalent  to a cutoff of  27.92, 27.45, 26.98 a.u.

 SYSTEM =  C48H56N8                                
 POSCAR =  Li4 Ti4 P4 O20                          

 Startparameter for this run:
   NWRITE =      2    write-flag & timer
   PREC   = accura    normal or accurate (medium, high low for compatibility)
   ISTART =      0    job   : 0-new  1-cont  2-samecut
   ICHARG =      2    charge: 1-file 2-atom 10-const
   ISPIN  =      2    spin polarized calculation?
   LNONCOLLINEAR =      F non collinear calculations
   LSORBIT =      F    spin-orbit coupling
   INIWAV =      1    electr: 0-lowe 1-rand  2-diag
   LASPH  =      F    aspherical Exc in radial PAW
 Electronic Relaxation 1
   ENCUT  =  600.0 eV  44.10 Ry    6.64 a.u.  12.84 14.51 14.77*2*pi/ulx,y,z
   ENINI  =  600.0     initial cutoff
   ENAUG  =  605.4 eV  augmentation charge cutoff
   NELM   =     60;   NELMIN=  2; NELMDL=  0     # of ELM steps 
   EDIFF  = 0.1E-07   stopping-criterion for ELM
   LREAL  =      F    real-space projection
   NLSPLINE    = F    spline interpolate recip. space projectors
   LCOMPAT=      F    compatible to vasp.4.4
   GGA_COMPAT  = T    GGA compatible to vasp.4.4-vasp.4.6
   LMAXPAW     = -100 max onsite density
   LMAXMIX     =    4 max onsite mixed and CHGCAR
   VOSKOWN=      0    Vosko Wilk Nusair interpolation
   ROPT   =    0.00000   0.00000   0.00000   0.00000
 Ionic relaxation
   EDIFFG = -.1E-02   stopping-criterion for IOM
   NSW    =    300    number of steps for IOM
   NBLOCK =      1;   KBLOCK =    300    inner block; outer block 
   IBRION =      2    ionic relax: 0-MD 1-quasi-New 2-CG
   NFREE  =      1    steps in history (QN), initial steepest desc. (CG)
   ISIF   =      3    stress and relaxation
   IWAVPR =     11    prediction:  0-non 1-charg 2-wave 3-comb
   ISYM   =      2    0-nonsym 1-usesym 2-fastsym
   LCORR  =      T    Harris-Foulkes like correction to forces

   POTIM  = 0.2000    time-step for ionic-motion
   TEIN   =    0.0    initial temperature
   TEBEG  =    0.0;   TEEND  =   0.0 temperature during run
   SMASS  =  -3.00    Nose mass-parameter (am)
   estimated Nose-frequenzy (Omega)   =  0.10E-29 period in steps = 0.31E+47 mass=  -0.945E-27a.u.
   SCALEE = 1.0000    scale energy and forces
   NPACO  =    256;   APACO  = 10.0  distance and # of slots for P.C.
   PSTRESS=    0.0 pullay stress

  Mass of Ions in am
   POMASS =   7.01 47.88 30.97 16.00
  Ionic Valenz
   ZVAL   =   1.00  4.00  5.00  6.00
  Atomic Wigner-Seitz radii
   RWIGS  =  -1.00 -1.00 -1.00 -1.00
  virtual crystal weights 
   VCA    =   1.00  1.00  1.00  1.00
   NELECT =     160.0000    total number of electrons
   NUPDOWN=      -1.0000    fix difference up-down

 DOS related values:
   EMIN   =  10.00;   EMAX   =-10.00  energy-range for DOS
   EFERMI =   0.00;   METHOD = LEGACY      
   ISMEAR =     0;   SIGMA  =   0.05  broadening in eV -4-tet -1-fermi 0-gaus

 Electronic relaxation 2 (details)
   IALGO  =     38    algorithm
   LDIAG  =      T    sub-space diagonalisation (order eigenvalues)
   LSUBROT=      F    optimize rotation matrix (better conditioning)
   TURBO    =      0    0=normal 1=particle mesh
   IRESTART =      0    0=no restart 2=restart with 2 vectors
   NREBOOT  =      0    no. of reboots
   NMIN     =      0    reboot dimension
   EREF     =   0.00    reference energy to select bands
   IMIX   =      4    mixing-type and parameters
     AMIX     =   0.40;   BMIX     =  1.00
     AMIX_MAG =   1.60;   BMIX_MAG =  1.00
     AMIN     =   0.10
     WC   =   100.;   INIMIX=   1;  MIXPRE=   1;  MAXMIX= -45

 Intra band minimization:
   WEIMIN = 0.0010     energy-eigenvalue tresh-hold
   EBREAK =  0.22E-10  absolut break condition
   DEPER  =   0.30     relativ break condition  

   TIME   =   0.40     timestep for ELM

  volume/ion in A,a.u.               =      10.80        72.88
  Fermi-wavevector in a.u.,A,eV,Ry     =   1.266453  2.393249 21.822418  1.603902
  Thomas-Fermi vector in A             =   2.399653
 
 Write flags
   LWAVE        =      F    write WAVECAR
   LDOWNSAMPLE  =      F    k-point downsampling of WAVECAR
   LCHARG       =      F    write CHGCAR
   LVTOT        =      F    write LOCPOT, total local potential
   LVHAR        =      F    write LOCPOT, Hartree potential only
   LELF         =      F    write electronic localiz. function (ELF)
   LORBIT       =     11    0 simple, 1 ext, 2 COOP (PROOUT), +10 PAW based schemes


 Dipole corrections
   LMONO  =      F    monopole corrections only (constant potential shift)
   LDIPOL =      F    correct potential (dipole corrections)
   IDIPOL =      0    1-x, 2-y, 3-z, 4-all directions 
   EPSILON=  1.0000000 bulk dielectric constant

 Exchange correlation treatment:
   GGA     =    --    GGA type
   LEXCH   =     8    internal setting for exchange type
   LIBXC   =     F    Libxc                    
   VOSKOWN =     0    Vosko Wilk Nusair interpolation
   LHFCALC =     F    Hartree Fock is set to
   LHFONE  =     F    Hartree Fock one center treatment
   AEXX    =    0.0000 exact exchange contribution

 Linear response parameters
   LEPSILON=     F    determine dielectric tensor
   LRPA    =     F    only Hartree local field effects (RPA)
   LNABLA  =     F    use nabla operator in PAW spheres
   LVEL    =     F    velocity operator in full k-point grid
   CSHIFT  =0.1000    complex shift for real part using Kramers Kronig
   OMEGAMAX=  -1.0    maximum frequency
   DEG_THRESHOLD= 0.2000000E-02 threshold for treating states as degnerate
   RTIME   =   -0.100 relaxation time in fs
  (WPLASMAI=    0.000 imaginary part of plasma frequency in eV, 0.658/RTIME)
   DFIELD  = 0.0000000 0.0000000 0.0000000 field for delta impulse in time
 
  Optional k-point grid parameters
   LKPOINTS_OPT  =     F    use optional k-point grid
   KPOINTS_OPT_MODE=     1    mode for optional k-point grid
 
 Orbital magnetization related:
   ORBITALMAG=     F  switch on orbital magnetization
   LCHIMAG   =     F  perturbation theory with respect to B field
   DQ        =  0.001000  dq finite difference perturbation B field
   LLRAUG    =     F  two centre corrections for induced B field
   LBONE     =     F  B-component reconstruction in AE one-centre
   LVGVCALC  =     T  calculate vGv susceptibility
   LVGVAPPL  =     F  apply vGv susceptibility instead of pGv for G=0

 Random number generation:
   RANDOM_GENERATOR = DEFAULT
   PCG_SEED         = not used


--------------------------------------------------------------------------------------------------------


 conjugate gradient relaxation of ions
 charge density and potential will be updated during run
 spin polarized calculation
 Variant of blocked Davidson
 Davidson routine will perform the subspace rotation
 perform sub-space diagonalisation
    after iterative eigenvector-optimisation
 modified Broyden-mixing scheme, WC =      100.0
 initial mixing is a Kerker type mixing with AMIX =  0.4000 and BMIX =      1.0000
 Hartree-type preconditioning will be used
 using additional bands           36
 reciprocal scheme for non local part
 use partial core corrections
 calculate Harris-corrections to forces 
   (improved forces if not selfconsistent)
 use gradient corrections 
 use of overlap-Matrix (Vanderbilt PP)
 Gauss-broadening in eV      SIGMA  =   0.05


--------------------------------------------------------------------------------------------------------


  energy-cutoff  :      600.00
  volume of cell :      345.60
      direct lattice vectors                 reciprocal lattice vectors
     6.430810257  0.000000000  0.000000000     0.155501400  0.000000000  0.000000000
     0.000000000  7.266908343  0.000000000     0.000000000  0.137610102  0.000000000
     0.000000000  0.000000000  7.395408592     0.000000000  0.000000000  0.135219033

  length of vectors
     6.430810257  7.266908343  7.395408592     0.155501400  0.137610102  0.135219033


 
 k-points in units of 2pi/SCALE and weight: K-points                                
   0.00000000  0.00000000  0.00000000       0.028
   0.03887535  0.00000000  0.00000000       0.056
   0.07775070  0.00000000  0.00000000       0.028
   0.00000000  0.04587003  0.00000000       0.056
   0.03887535  0.04587003  0.00000000       0.111
   0.07775070  0.04587003  0.00000000       0.056
   0.00000000  0.00000000  0.04507301       0.056
   0.03887535  0.00000000  0.04507301       0.111
   0.07775070  0.00000000  0.04507301       0.056
   0.00000000  0.04587003  0.04507301       0.111
   0.03887535  0.04587003  0.04507301       0.222
   0.07775070  0.04587003  0.04507301       0.111
 
 k-points in reciprocal lattice and weights: K-points                                
   0.00000000  0.00000000  0.00000000       0.028
   0.25000000  0.00000000  0.00000000       0.056
   0.50000000  0.00000000  0.00000000       0.028
   0.00000000  0.33333333  0.00000000       0.056
   0.25000000  0.33333333  0.00000000       0.111
   0.50000000  0.33333333  0.00000000       0.056
   0.00000000  0.00000000  0.33333333       0.056
   0.25000000  0.00000000  0.33333333       0.111
   0.50000000  0.00000000  0.33333333       0.056
   0.00000000  0.33333333  0.33333333       0.111
   0.25000000  0.33333333  0.33333333       0.222
   0.50000000  0.33333333  0.33333333       0.111
 
 position of ions in fractional coordinates (direct lattice) 
   0.00000000  0.00000000  0.00000000
   0.50000000  0.50000000  0.50000000
   0.00000000  0.50000000  0.50000000
   0.50000000  0.00000000  0.00000000
   0.75000000  0.27814665  0.83855515
   0.25000000  0.72185335  0.16144484
   0.25000000  0.77814665  0.66144485
   0.75000000  0.22185335  0.33855518
   0.25000000  0.36967643  0.87379463
   0.75000000  0.63032360  0.12620538
   0.75000000  0.86967640  0.62620537
   0.25000000  0.13032357  0.37379463
   0.94316004  0.74394075  0.62793383
   0.55683996  0.75605925  0.12793384
   0.05683997  0.24394075  0.87206617
   0.44316004  0.25605925  0.37206614
   0.05683997  0.25605925  0.37206614
   0.55683996  0.74394075  0.62793383
   0.94316004  0.75605925  0.12793384
   0.44316004  0.24394075  0.87206617
   0.75000000  0.15615012  0.10889853
   0.25000000  0.84384988  0.89110145
   0.25000000  0.65615012  0.39110148
   0.75000000  0.34384988  0.60889855
   0.75000000  0.99641546  0.79522837
   0.25000000  0.00358453  0.20477162
   0.25000000  0.49641546  0.70477163
   0.75000000  0.50358454  0.29522840
   0.25000000  0.48399083  0.05021212
   0.75000000  0.51600917  0.94978791
   0.75000000  0.98399083  0.44978788
   0.25000000  0.01600917  0.55021209
 
 position of ions in cartesian coordinates  (Angst):
   0.00000000  0.00000000  0.00000000
   3.21540513  3.63345417  3.69770430
   0.00000000  3.63345417  3.69770430
   3.21540513  0.00000000  0.00000000
   4.82310769  2.02126621  6.20145795
   1.60770256  5.24564214  1.19395053
   1.60770256  5.65472038  4.89165493
   4.82310769  1.61218797  2.50375388
   1.60770256  2.68640471  6.46206834
   4.82310769  4.58050385  0.93334036
   4.82310769  6.31985867  4.63104454
   1.60770256  0.94704947  2.76436405
   6.06528328  5.40614924  4.64382722
   3.58093211  5.49421328  0.94612304
   0.36552705  1.77269506  6.44928566
   2.84987815  1.86075911  2.75158115
   0.36552705  1.86075911  2.75158115
   3.58093211  5.40614924  4.64382722
   6.06528328  5.49421328  0.94612304
   2.84987815  1.77269506  6.44928566
   4.82310769  1.13472858  0.80534913
   1.60770256  6.13217976  6.59005935
   1.60770256  4.76818275  2.89235527
   4.82310769  2.49872559  4.50305354
   4.82310769  7.24085980  5.88103871
   1.60770256  0.02604849  1.51436978
   1.60770256  3.60740563  5.21207418
   4.82310769  3.65950272  2.18333462
   1.60770256  3.51711699  0.37133913
   4.82310769  3.74979136  7.02406963
   4.82310769  7.15057116  3.32636512
   1.60770256  0.11633714  4.06904325
 


--------------------------------------------------------------------------------------------------------


 k-point   1 :   0.0000 0.0000 0.0000  plane waves:   11573
 k-point   2 :   0.2500 0.0000 0.0000  plane waves:   11534
 k-point   3 :   0.5000 0.0000 0.0000  plane waves:   11514
 k-point   4 :   0.0000 0.3333 0.0000  plane waves:   11517
 k-point   5 :   0.2500 0.3333 0.0000  plane waves:   11518
 k-point   6 :   0.5000 0.3333 0.0000  plane waves:   11554
 k-point   7 :   0.0000 0.0000 0.3333  plane waves:   11556
 k-point   8 :   0.2500 0.0000 0.3333  plane waves:   11535
 k-point   9 :   0.5000 0.0000 0.3333  plane waves:   11546
 k-point  10 :   0.0000 0.3333 0.3333  plane waves:   11518
 k-point  11 :   0.2500 0.3333 0.3333  plane waves:   11540
 k-point  12 :   0.5000 0.3333 0.3333  plane waves:   11528

 maximum and minimum number of plane-waves per node :       738      689

 maximum number of plane-waves:     11573
 maximum index in each direction: 
   IXMAX=   12   IYMAX=   14   IZMAX=   14
   IXMIN=  -13   IYMIN=  -14   IZMIN=  -15


 parallel 3D FFT for wavefunctions:
    minimum data exchange during FFTs selected (reduces bandwidth)
 parallel 3D FFT for charge:
    minimum data exchange during FFTs selected (reduces bandwidth)


 total amount of memory used by VASP MPI-rank0    48391. kBytes
=======================================================================

   base      :      30000. kBytes
   nonl-proj :       4591. kBytes
   fftplans  :       1377. kBytes
   grid      :       3962. kBytes
   one-center:         43. kBytes
   wavefun   :       8418. kBytes
 
     INWAV:  cpu time      0.0000: real time      0.0000
 Broyden mixing: mesh for mixing (old mesh)
   NGX = 25   NGY = 29   NGZ = 29
  (NGX  =108   NGY  =120   NGZ  =120)
  gives a total of  21025 points

 initial charge density was supplied:
 charge density of overlapping atoms calculated
 number of electron     160.0000000 magnetization      32.0000000
 keeping initial charge density in first step


--------------------------------------------------------------------------------------------------------


 Maximum index for augmentation-charges          799 (set IRDMAX)


--------------------------------------------------------------------------------------------------------


 First call to EWALD:  gamma=   0.253
 Maximum number of real-space cells 3x 3x 3
 Maximum number of reciprocal cells 3x 3x 3

    FEWALD:  cpu time      0.0016: real time      0.0040


--------------------------------------- Ionic step        1  -------------------------------------------




--------------------------------------- Iteration      1(   1)  ---------------------------------------


    POTLOK:  cpu time      0.0517: real time      0.0953
    SETDIJ:  cpu time      0.0123: real time      0.0224
     EDDAV:  cpu time      2.6167: real time      2.6972
       DOS:  cpu time      0.0082: real time      0.0101
    --------------------------------------------
      LOOP:  cpu time      2.6890: real time      2.8251

 eigenvalue-minimisations  :  5568
 total energy-change (2. order) : 0.1813992E+04  (-0.7763350E+04)
 number of electron     160.0000000 magnetization      32.0000000
 augmentation part      160.0000000 magnetization      32.0000000

 Free energy of the ion-electron system (eV)
  ---------------------------------------------------
  alpha Z        PSCENC =       419.57651402
  Ewald energy   TEWEN  =     -7012.02830964
  -Hartree energ DENC   =     -2817.47270822
  -exchange      EXHF   =         0.00000000
  -V(xc)+E(xc)   XCENC  =       414.09042023
  PAW double counting   =      8018.61175529    -7837.74856567
  entropy T*S    EENTRO =        -0.01037079
  eigenvalues    EBANDS =       877.19286927
  atomic energy  EATOM  =      9751.78041952
  Solvation  Ediel_sol  =         0.00000000
  ---------------------------------------------------
  free energy    TOTEN  =      1813.99202401 eV

  energy without entropy =     1814.00239480  energy(sigma->0) =     1813.99720941


--------------------------------------------------------------------------------------------------------




--------------------------------------- Iteration      1(   2)  ---------------------------------------


     EDDAV:  cpu time      2.6171: real time      2.6453
       DOS:  cpu time      0.0020: real time      0.0022
    --------------------------------------------
      LOOP:  cpu time      2.6191: real time      2.6474

 eigenvalue-minimisations  :  6060
 total energy-change (2. order) :-0.1822309E+04  (-0.1638992E+04)
 number of electron     160.0000000 magnetization      32.0000000
 augmentation part      160.0000000 magnetization      32.0000000

 Free energy of the ion-electron system (eV)
  ---------------------------------------------------
  alpha Z        PSCENC =       419.57651402
  Ewald energy   TEWEN  =     -7012.02830964
  -Hartree energ DENC   =     -2817.47270822
  -exchange      EXHF   =         0.00000000
  -V(xc)+E(xc)   XCENC  =       414.09042023
  PAW double counting   =      8018.61175529    -7837.74856567
  entropy T*S    EENTRO =        -0.00004605
  eigenvalues    EBANDS =      -945.12668093
  atomic energy  EATOM  =      9751.78041952
  Solvation  Ediel_sol  =         0.00000000
  ---------------------------------------------------
  free energy    TOTEN  =        -8.31720145 eV

  energy without entropy =       -8.31715540  energy(sigma->0) =       -8.31717842


--------------------------------------------------------------------------------------------------------




--------------------------------------- Iteration      1(   3)  ---------------------------------------


     EDDAV:  cpu time      2.9317: real time      2.9497
       DOS:  cpu time      0.0013: real time      0.0038
    --------------------------------------------
      LOOP:  cpu time      2.9330: real time      2.9535

 eigenvalue-minimisations  :  5936
 total energy-change (2. order) :-0.2661570E+03  (-0.2604179E+03)
 number of electron     160.0000000 magnetization      32.0000000
 augmentation part      160.0000000 magnetization      32.0000000

 Free energy of the ion-electron system (eV)
  ---------------------------------------------------
  alpha Z        PSCENC =       419.57651402
  Ewald energy   TEWEN  =     -7012.02830964
  -Hartree energ DENC   =     -2817.47270822
  -exchange      EXHF   =         0.00000000
  -V(xc)+E(xc)   XCENC  =       414.09042023
  PAW double counting   =      8018.61175529    -7837.74856567
  entropy T*S    EENTRO =        -0.00000000
  eigenvalues    EBANDS =     -1211.28369104
  atomic energy  EATOM  =      9751.78041952
  Solvation  Ediel_sol  =         0.00000000
  ---------------------------------------------------
  free energy    TOTEN  =      -274.47416551 eV

  energy without entropy =     -274.47416551  energy(sigma->0) =     -274.47416551


--------------------------------------------------------------------------------------------------------




--------------------------------------- Iteration      1(   4)  ---------------------------------------


     EDDAV:  cpu time      2.8700: real time      2.8861
       DOS:  cpu time      0.0010: real time      0.0010
    --------------------------------------------
      LOOP:  cpu time      2.8710: real time      2.8871

 eigenvalue-minimisations  :  7008
 total energy-change (2. order) :-0.9506366E+01  (-0.9400582E+01)
 number of electron     160.0000000 magnetization      32.0000000
 augmentation part      160.0000000 magnetization      32.0000000

 Free energy of the ion-electron system (eV)
  ---------------------------------------------------
  alpha Z        PSCENC =       419.57651402
  Ewald energy   TEWEN  =     -7012.02830964
  -Hartree energ DENC   =     -2817.47270822
  -exchange      EXHF   =         0.00000000
  -V(xc)+E(xc)   XCENC  =       414.09042023
  PAW double counting   =      8018.61175529    -7837.74856567
  entropy T*S    EENTRO =        -0.00000000
  eigenvalues    EBANDS =     -1220.79005738
  atomic energy  EATOM  =      9751.78041952
  Solvation  Ediel_sol  =         0.00000000
  ---------------------------------------------------
  free energy    TOTEN  =      -283.98053185 eV

  energy without entropy =     -283.98053185  energy(sigma->0) =     -283.98053185


--------------------------------------------------------------------------------------------------------




--------------------------------------- Iteration      1(   5)  ---------------------------------------


     EDDAV:  cpu time      3.3356: real time      3.3520
       DOS:  cpu time      0.0010: real time      0.0010
    CHARGE:  cpu time      0.1120: real time      0.1334
    MIXING:  cpu time      0.0077: real time      0.0231
    --------------------------------------------
      LOOP:  cpu time      3.4563: real time      3.5095

 eigenvalue-minimisations  :  7600
 total energy-change (2. order) :-0.2911412E+00  (-0.2905567E+00)
 number of electron     160.0000026 magnetization      10.5357911
 augmentation part       15.8680512 magnetization      10.7543489

 Broyden mixing:
  rms(total) = 0.82899E+01    rms(broyden)= 0.82897E+01
  rms(prec ) = 0.97874E+01
  weight for this iteration     100.00

 Free energy of the ion-electron system (eV)
  ---------------------------------------------------
  alpha Z        PSCENC =       419.57651402
  Ewald energy   TEWEN  =     -7012.02830964
  -Hartree energ DENC   =     -2817.47270822
  -exchange      EXHF   =         0.00000000
  -V(xc)+E(xc)   XCENC  =       414.09042023
  PAW double counting   =      8018.61175529    -7837.74856567
  entropy T*S    EENTRO =        -0.00000000
  eigenvalues    EBANDS =     -1221.08119858
  atomic energy  EATOM  =      9751.78041952
  Solvation  Ediel_sol  =         0.00000000
  ---------------------------------------------------
  free energy    TOTEN  =      -284.27167305 eV

  energy without entropy =     -284.27167305  energy(sigma->0) =     -284.27167305


--------------------------------------------------------------------------------------------------------




--------------------------------------- Iteration      1(   6)  ---------------------------------------


    POTLOK:  cpu time      0.0308: real time      0.0314
    SETDIJ:  cpu time      0.0078: real time      0.0078
     EDDAV:  cpu time      3.4098: real time      3.4223
       DOS:  cpu time      0.0011: real time      0.0011
    CHARGE:  cpu time      0.1198: real time      0.1207
    MIXING:  cpu time      0.0021: real time      0.0070
    --------------------------------------------
      LOOP:  cpu time      3.5714: real time      3.5903

 eigenvalue-minimisations  :  7860
 total energy-change (2. order) : 0.4935305E+02  (-0.1851914E+02)
 number of electron     160.0000023 magnetization       3.9697201
 augmentation part       16.1462608 magnetization       3.6897557

 Broyden mixing:
  rms(total) = 0.31277E+01    rms(broyden)= 0.31271E+01
  rms(prec ) = 0.35144E+01
  weight for this iteration     100.00

 eigenvalues of (default mixing * dielectric matrix)
  average eigenvalue GAMMA=   0.9623
  0.9623

 Free energy of the ion-electron system (eV)
  ---------------------------------------------------
  alpha Z        PSCENC =       419.57651402
  Ewald energy   TEWEN  =     -7012.02830964
  -Hartree energ DENC   =     -3165.18709537
  -exchange      EXHF   =         0.00000000
  -V(xc)+E(xc)   XCENC  =       441.92844121
  PAW double counting   =     12860.10544237   -12683.49584746
  entropy T*S    EENTRO =        -0.00000000
  eigenvalues    EBANDS =      -847.59818827
  atomic energy  EATOM  =      9751.78041952
  Solvation  Ediel_sol  =         0.00000000
  ---------------------------------------------------
  free energy    TOTEN  =      -234.91862362 eV

  energy without entropy =     -234.91862362  energy(sigma->0) =     -234.91862362


--------------------------------------------------------------------------------------------------------




--------------------------------------- Iteration      1(   7)  ---------------------------------------


    POTLOK:  cpu time      0.0338: real time      0.0340
    SETDIJ:  cpu time      0.0087: real time      0.0087
     EDDAV:  cpu time      3.3063: real time      3.3200
       DOS:  cpu time      0.0012: real time      0.0012
    CHARGE:  cpu time      0.1232: real time      0.1236
    MIXING:  cpu time      0.0010: real time      0.0010
    --------------------------------------------
      LOOP:  cpu time      3.4742: real time      3.4884

 eigenvalue-minimisations  :  7744
 total energy-change (2. order) :-0.8576044E+01  (-0.4475153E+01)
 number of electron     160.0000022 magnetization       0.1208933
 augmentation part       14.1318165 magnetization      -0.0324954

 Broyden mixing:
  rms(total) = 0.25073E+01    rms(broyden)= 0.25072E+01
  rms(prec ) = 0.28239E+01
  weight for this iteration     100.00

 eigenvalues of (default mixing * dielectric matrix)
  average eigenvalue GAMMA=   1.0249
  1.4043  0.6455

 Free energy of the ion-electron system (eV)
  ---------------------------------------------------
  alpha Z        PSCENC =       419.57651402
  Ewald energy   TEWEN  =     -7012.02830964
  -Hartree energ DENC   =     -3121.13108122
  -exchange      EXHF   =         0.00000000
  -V(xc)+E(xc)   XCENC  =       434.28654886
  PAW double counting   =     16486.39866657   -16311.11974172
  entropy T*S    EENTRO =        -0.00000000
  eigenvalues    EBANDS =      -891.25768382
  atomic energy  EATOM  =      9751.78041952
  Solvation  Ediel_sol  =         0.00000000
  ---------------------------------------------------
  free energy    TOTEN  =      -243.49466744 eV

  energy without entropy =     -243.49466744  energy(sigma->0) =     -243.49466744


--------------------------------------------------------------------------------------------------------




--------------------------------------- Iteration      1(   8)  ---------------------------------------


    POTLOK:  cpu time      0.0355: real time      0.0356
    SETDIJ:  cpu time      0.0091: real time      0.0092
     EDDAV:  cpu time      3.2960: real time      3.3096
       DOS:  cpu time      0.0014: real time      0.0014
    CHARGE:  cpu time      0.1093: real time      0.1097
    MIXING:  cpu time      0.0009: real time      0.0009
    --------------------------------------------
      LOOP:  cpu time      3.4522: real time      3.4664

 eigenvalue-minimisations  :  7712
 total energy-change (2. order) : 0.1831739E+01  (-0.3665525E+00)
 number of electron     160.0000022 magnetization      -0.2986256
 augmentation part       15.0529446 magnetization      -0.3193189

 Broyden mixing:
  rms(total) = 0.62399E+00    rms(broyden)= 0.62397E+00
  rms(prec ) = 0.68266E+00
  weight for this iteration     100.00

 eigenvalues of (default mixing * dielectric matrix)
  average eigenvalue GAMMA=   1.1301
  1.7511  1.0009  0.6382

 Free energy of the ion-electron system (eV)
  ---------------------------------------------------
  alpha Z        PSCENC =       419.57651402
  Ewald energy   TEWEN  =     -7012.02830964
  -Hartree energ DENC   =     -3135.57912428
  -exchange      EXHF   =         0.00000000
  -V(xc)+E(xc)   XCENC  =       436.23289491
  PAW double counting   =     19606.86637606   -19430.82620168
  entropy T*S    EENTRO =        -0.00000000
  eigenvalues    EBANDS =      -877.68549747
  atomic energy  EATOM  =      9751.78041952
  Solvation  Ediel_sol  =         0.00000000
  ---------------------------------------------------
  free energy    TOTEN  =      -241.66292856 eV

  energy without entropy =     -241.66292856  energy(sigma->0) =     -241.66292856


--------------------------------------------------------------------------------------------------------




--------------------------------------- Iteration      1(   9)  ---------------------------------------


    POTLOK:  cpu time      0.0318: real time      0.0319
    SETDIJ:  cpu time      0.0082: real time      0.0083
     EDDAV:  cpu time      3.2260: real time      3.2483
       DOS:  cpu time      0.0011: real time      0.0011
    CHARGE:  cpu time      0.1109: real time      0.1113
    MIXING:  cpu time      0.0009: real time      0.0009
    --------------------------------------------
      LOOP:  cpu time      3.3789: real time      3.4018

 eigenvalue-minimisations  :  6928
 total energy-change (2. order) : 0.1766692E-01  (-0.7996947E-01)
 number of electron     160.0000022 magnetization      -0.2936906
 augmentation part       15.0274062 magnetization      -0.3035869

 Broyden mixing:
  rms(total) = 0.34375E+00    rms(broyden)= 0.34374E+00
  rms(prec ) = 0.37103E+00
  weight for this iteration     100.00

 eigenvalues of (default mixing * dielectric matrix)
  average eigenvalue GAMMA=   1.1324
  1.9907  1.1088  0.8503  0.5800

 Free energy of the ion-electron system (eV)
  ---------------------------------------------------
  alpha Z        PSCENC =       419.57651402
  Ewald energy   TEWEN  =     -7012.02830964
  -Hartree energ DENC   =     -3129.52362879
  -exchange      EXHF   =         0.00000000
  -V(xc)+E(xc)   XCENC  =       436.10467934
  PAW double counting   =     20912.81635910   -20737.09708296
  entropy T*S    EENTRO =        -0.00000000
  eigenvalues    EBANDS =      -883.27421223
  atomic energy  EATOM  =      9751.78041952
  Solvation  Ediel_sol  =         0.00000000
  ---------------------------------------------------
  free energy    TOTEN  =      -241.64526164 eV

  energy without entropy =     -241.64526164  energy(sigma->0) =     -241.64526164


--------------------------------------------------------------------------------------------------------




--------------------------------------- Iteration      1(  10)  ---------------------------------------


    POTLOK:  cpu time      0.0319: real time      0.0320
    SETDIJ:  cpu time      0.0086: real time      0.0086
     EDDAV:  cpu time      2.9581: real time      2.9697
       DOS:  cpu time      0.0010: real time      0.0010
    CHARGE:  cpu time      0.1100: real time      0.1105
    MIXING:  cpu time      0.0010: real time      0.0010
    --------------------------------------------
      LOOP:  cpu time      3.1106: real time      3.1229

 eigenvalue-minimisations  :  7040
 total energy-change (2. order) : 0.7934152E-02  (-0.9293270E-02)
 number of electron     160.0000023 magnetization      -0.0502587
 augmentation part       15.0756001 magnetization      -0.0438007

 Broyden mixing:
  rms(total) = 0.95393E-01    rms(broyden)= 0.95391E-01
  rms(prec ) = 0.10769E+00
  weight for this iteration     100.00

 eigenvalues of (default mixing * dielectric matrix)
  average eigenvalue GAMMA=   1.1522
  2.1767  1.3300  0.9725  0.6409  0.6409

 Free energy of the ion-electron system (eV)
  ---------------------------------------------------
  alpha Z        PSCENC =       419.57651402
  Ewald energy   TEWEN  =     -7012.02830964
  -Hartree energ DENC   =     -3134.73546913
  -exchange      EXHF   =         0.00000000
  -V(xc)+E(xc)   XCENC  =       436.64457739
  PAW double counting   =     21470.37604994   -21294.85086658
  entropy T*S    EENTRO =        -0.00000000
  eigenvalues    EBANDS =      -878.40024300
  atomic energy  EATOM  =      9751.78041952
  Solvation  Ediel_sol  =         0.00000000
  ---------------------------------------------------
  free energy    TOTEN  =      -241.63732749 eV

  energy without entropy =     -241.63732749  energy(sigma->0) =     -241.63732749


--------------------------------------------------------------------------------------------------------




--------------------------------------- Iteration      1(  11)  ---------------------------------------


    POTLOK:  cpu time      0.0317: real time      0.0319
    SETDIJ:  cpu time      0.0088: real time      0.0088
     EDDAV:  cpu time      2.8622: real time      2.8743
       DOS:  cpu time      0.0011: real time      0.0011
    CHARGE:  cpu time      0.1107: real time      0.1110
    MIXING:  cpu time      0.0010: real time      0.0010
    --------------------------------------------
      LOOP:  cpu time      3.0154: real time      3.0280

 eigenvalue-minimisations  :  6672
 total energy-change (2. order) :-0.6736946E-02  (-0.2949775E-02)
 number of electron     160.0000022 magnetization       0.0326925
 augmentation part       15.0427309 magnetization       0.0335939

 Broyden mixing:
  rms(total) = 0.60939E-01    rms(broyden)= 0.60937E-01
  rms(prec ) = 0.69711E-01
  weight for this iteration     100.00

 eigenvalues of (default mixing * dielectric matrix)
  average eigenvalue GAMMA=   1.1650
  2.3963  1.6047  1.0101  0.7202  0.6838  0.5753

 Free energy of the ion-electron system (eV)
  ---------------------------------------------------
  alpha Z        PSCENC =       419.57651402
  Ewald energy   TEWEN  =     -7012.02830964
  -Hartree energ DENC   =     -3138.34734128
  -exchange      EXHF   =         0.00000000
  -V(xc)+E(xc)   XCENC  =       436.91650029
  PAW double counting   =     21553.37566554   -21378.02716040
  entropy T*S    EENTRO =        -0.00000000
  eigenvalues    EBANDS =      -874.89035249
  atomic energy  EATOM  =      9751.78041952
  Solvation  Ediel_sol  =         0.00000000
  ---------------------------------------------------
  free energy    TOTEN  =      -241.64406443 eV

  energy without entropy =     -241.64406443  energy(sigma->0) =     -241.64406443


--------------------------------------------------------------------------------------------------------




--------------------------------------- Iteration      1(  12)  ---------------------------------------


    POTLOK:  cpu time      0.0312: real time      0.0314
    SETDIJ:  cpu time      0.0085: real time      0.0085
     EDDAV:  cpu time      3.0809: real time      3.0943
       DOS:  cpu time      0.0016: real time      0.0016
    CHARGE:  cpu time      0.1089: real time      0.1094
    MIXING:  cpu time      0.0010: real time      0.0010
    --------------------------------------------
      LOOP:  cpu time      3.2321: real time      3.2461

 eigenvalue-minimisations  :  6888
 total energy-change (2. order) :-0.4277510E-03  (-0.2088984E-03)
 number of electron     160.0000022 magnetization       0.0615936
 augmentation part       15.0493713 magnetization       0.0617921

 Broyden mixing:
  rms(total) = 0.32120E-01    rms(broyden)= 0.32120E-01
  rms(prec ) = 0.36950E-01
  weight for this iteration     100.00

 eigenvalues of (default mixing * dielectric matrix)
  average eigenvalue GAMMA=   1.1530
  2.4294  1.8488  0.9210  0.8378  0.8378  0.5980  0.5980

 Free energy of the ion-electron system (eV)
  ---------------------------------------------------
  alpha Z        PSCENC =       419.57651402
  Ewald energy   TEWEN  =     -7012.02830964
  -Hartree energ DENC   =     -3139.10168002
  -exchange      EXHF   =         0.00000000
  -V(xc)+E(xc)   XCENC  =       436.97686584
  PAW double counting   =     21537.53771653   -21362.22543939
  entropy T*S    EENTRO =        -0.00000000
  eigenvalues    EBANDS =      -874.16057904
  atomic energy  EATOM  =      9751.78041952
  Solvation  Ediel_sol  =         0.00000000
  ---------------------------------------------------
  free energy    TOTEN  =      -241.64449219 eV

  energy without entropy =     -241.64449219  energy(sigma->0) =     -241.64449219


--------------------------------------------------------------------------------------------------------




--------------------------------------- Iteration      1(  13)  ---------------------------------------


    POTLOK:  cpu time      0.0320: real time      0.0325
    SETDIJ:  cpu time      0.0084: real time      0.0085
     EDDAV:  cpu time      2.7517: real time      2.7626
       DOS:  cpu time      0.0011: real time      0.0012
    CHARGE:  cpu time      0.1105: real time      0.1109
    MIXING:  cpu time      0.0010: real time      0.0010
    --------------------------------------------
      LOOP:  cpu time      2.9047: real time      2.9166

 eigenvalue-minimisations  :  6608
 total energy-change (2. order) :-0.2480331E-03  (-0.2153525E-03)
 number of electron     160.0000022 magnetization       0.0332619
 augmentation part       15.0538273 magnetization       0.0324803

 Broyden mixing:
  rms(total) = 0.12424E-01    rms(broyden)= 0.12422E-01
  rms(prec ) = 0.14280E-01
  weight for this iteration     100.00

 eigenvalues of (default mixing * dielectric matrix)
  average eigenvalue GAMMA=   1.2221
  2.7089  2.1054  0.9808  0.9808  0.8972  0.8972  0.5863  0.6199

 Free energy of the ion-electron system (eV)
  ---------------------------------------------------
  alpha Z        PSCENC =       419.57651402
  Ewald energy   TEWEN  =     -7012.02830964
  -Hartree energ DENC   =     -3139.39947621
  -exchange      EXHF   =         0.00000000
  -V(xc)+E(xc)   XCENC  =       436.99583629
  PAW double counting   =     21485.87661337   -21310.57990743
  entropy T*S    EENTRO =        -0.00000000
  eigenvalues    EBANDS =      -873.86643014
  atomic energy  EATOM  =      9751.78041952
  Solvation  Ediel_sol  =         0.00000000
  ---------------------------------------------------
  free energy    TOTEN  =      -241.64474022 eV

  energy without entropy =     -241.64474022  energy(sigma->0) =     -241.64474022


--------------------------------------------------------------------------------------------------------




--------------------------------------- Iteration      1(  14)  ---------------------------------------


    POTLOK:  cpu time      0.0314: real time      0.0315
    SETDIJ:  cpu time      0.0080: real time      0.0081
     EDDAV:  cpu time      2.7822: real time      2.7936
       DOS:  cpu time      0.0011: real time      0.0038
    CHARGE:  cpu time      0.1160: real time      0.1166
    MIXING:  cpu time      0.0011: real time      0.0011
    --------------------------------------------
      LOOP:  cpu time      2.9398: real time      2.9546

 eigenvalue-minimisations  :  6552
 total energy-change (2. order) :-0.2019835E-03  (-0.3103427E-04)
 number of electron     160.0000022 magnetization       0.0041657
 augmentation part       15.0587221 magnetization       0.0031632

 Broyden mixing:
  rms(total) = 0.39988E-02    rms(broyden)= 0.39986E-02
  rms(prec ) = 0.46537E-02
  weight for this iteration     100.00

 eigenvalues of (default mixing * dielectric matrix)
  average eigenvalue GAMMA=   1.2189
  2.5774  2.3037  1.3714  1.0372  0.8643  0.8643  0.5860  0.7141  0.6515

 Free energy of the ion-electron system (eV)
  ---------------------------------------------------
  alpha Z        PSCENC =       419.57651402
  Ewald energy   TEWEN  =     -7012.02830964
  -Hartree energ DENC   =     -3139.56711047
  -exchange      EXHF   =         0.00000000
  -V(xc)+E(xc)   XCENC  =       437.00964292
  PAW double counting   =     21458.32108975   -21283.02054277
  entropy T*S    EENTRO =        -0.00000000
  eigenvalues    EBANDS =      -873.71664553
  atomic energy  EATOM  =      9751.78041952
  Solvation  Ediel_sol  =         0.00000000
  ---------------------------------------------------
  free energy    TOTEN  =      -241.64494220 eV

  energy without entropy =     -241.64494220  energy(sigma->0) =     -241.64494220


--------------------------------------------------------------------------------------------------------




--------------------------------------- Iteration      1(  15)  ---------------------------------------


    POTLOK:  cpu time      0.0324: real time      0.0348
    SETDIJ:  cpu time      0.0081: real time      0.0081
     EDDAV:  cpu time      2.8601: real time      2.8714
       DOS:  cpu time      0.0010: real time      0.0010
    CHARGE:  cpu time      0.1098: real time      0.1102
    MIXING:  cpu time      0.0011: real time      0.0010
    --------------------------------------------
      LOOP:  cpu time      3.0125: real time      3.0266

 eigenvalue-minimisations  :  6640
 total energy-change (2. order) :-0.6656962E-04  (-0.9716330E-05)
 number of electron     160.0000022 magnetization      -0.0016003
 augmentation part       15.0604938 magnetization      -0.0017703

 Broyden mixing:
  rms(total) = 0.31896E-02    rms(broyden)= 0.31895E-02
  rms(prec ) = 0.37204E-02
  weight for this iteration     100.00

 eigenvalues of (default mixing * dielectric matrix)
  average eigenvalue GAMMA=   1.2087
  2.6772  2.2058  1.5035  1.0637  0.9378  0.9378  0.7725  0.7725  0.5891  0.6269

 Free energy of the ion-electron system (eV)
  ---------------------------------------------------
  alpha Z        PSCENC =       419.57651402
  Ewald energy   TEWEN  =     -7012.02830964
  -Hartree energ DENC   =     -3139.53307033
  -exchange      EXHF   =         0.00000000
  -V(xc)+E(xc)   XCENC  =       437.00814035
  PAW double counting   =     21453.84032431   -21278.53188429
  entropy T*S    EENTRO =        -0.00000000
  eigenvalues    EBANDS =      -873.75714271
  atomic energy  EATOM  =      9751.78041952
  Solvation  Ediel_sol  =         0.00000000
  ---------------------------------------------------
  free energy    TOTEN  =      -241.64500877 eV

  energy without entropy =     -241.64500877  energy(sigma->0) =     -241.64500877


--------------------------------------------------------------------------------------------------------




--------------------------------------- Iteration      1(  16)  ---------------------------------------


    POTLOK:  cpu time      0.0371: real time      0.0373
    SETDIJ:  cpu time      0.0083: real time      0.0084
     EDDAV:  cpu time      3.0266: real time      3.0415
       DOS:  cpu time      0.0061: real time      0.0061
    CHARGE:  cpu time      0.1153: real time      0.1158
    MIXING:  cpu time      0.0012: real time      0.0012
    --------------------------------------------
      LOOP:  cpu time      3.1947: real time      3.2103

 eigenvalue-minimisations  :  7096
 total energy-change (2. order) :-0.3322621E-05  (-0.1678799E-05)
 number of electron     160.0000022 magnetization      -0.0018055
 augmentation part       15.0597618 magnetization      -0.0018299

 Broyden mixing:
  rms(total) = 0.15756E-02    rms(broyden)= 0.15755E-02
  rms(prec ) = 0.18069E-02
  weight for this iteration     100.00

 eigenvalues of (default mixing * dielectric matrix)
  average eigenvalue GAMMA=   1.1973
  2.7330  1.8409  1.8409  1.1287  1.1287  0.8656  0.8656  0.8297  0.5874  0.6340
  0.7155

 Free energy of the ion-electron system (eV)
  ---------------------------------------------------
  alpha Z        PSCENC =       419.57651402
  Ewald energy   TEWEN  =     -7012.02830964
  -Hartree energ DENC   =     -3139.53973797
  -exchange      EXHF   =         0.00000000
  -V(xc)+E(xc)   XCENC  =       437.00923524
  PAW double counting   =     21460.62205152   -21285.31200579
  entropy T*S    EENTRO =        -0.00000000
  eigenvalues    EBANDS =      -873.75317899
  atomic energy  EATOM  =      9751.78041952
  Solvation  Ediel_sol  =         0.00000000
  ---------------------------------------------------
  free energy    TOTEN  =      -241.64501209 eV

  energy without entropy =     -241.64501209  energy(sigma->0) =     -241.64501209


--------------------------------------------------------------------------------------------------------




--------------------------------------- Iteration      1(  17)  ---------------------------------------


    POTLOK:  cpu time      0.0331: real time      0.0333
    SETDIJ:  cpu time      0.0088: real time      0.0088
     EDDAV:  cpu time      2.9308: real time      2.9464
       DOS:  cpu time      0.0010: real time      0.0010
    CHARGE:  cpu time      0.1164: real time      0.1243
    MIXING:  cpu time      0.0013: real time      0.0013
    --------------------------------------------
      LOOP:  cpu time      3.0915: real time      3.1151

 eigenvalue-minimisations  :  6648
 total energy-change (2. order) :-0.2472229E-05  (-0.6162498E-06)
 number of electron     160.0000022 magnetization      -0.0004287
 augmentation part       15.0594670 magnetization      -0.0003930

 Broyden mixing:
  rms(total) = 0.71953E-03    rms(broyden)= 0.71946E-03
  rms(prec ) = 0.84679E-03
  weight for this iteration     100.00

 eigenvalues of (default mixing * dielectric matrix)
  average eigenvalue GAMMA=   1.2312
  2.7688  2.0187  2.0187  1.3118  1.3118  0.8488  0.8488  0.9424  0.8101  0.5902
  0.6615  0.6424

 Free energy of the ion-electron system (eV)
  ---------------------------------------------------
  alpha Z        PSCENC =       419.57651402
  Ewald energy   TEWEN  =     -7012.02830964
  -Hartree energ DENC   =     -3139.55779905
  -exchange      EXHF   =         0.00000000
  -V(xc)+E(xc)   XCENC  =       437.01057814
  PAW double counting   =     21464.46220012   -21289.15047521
  entropy T*S    EENTRO =        -0.00000000
  eigenvalues    EBANDS =      -873.73814246
  atomic energy  EATOM  =      9751.78041952
  Solvation  Ediel_sol  =         0.00000000
  ---------------------------------------------------
  free energy    TOTEN  =      -241.64501457 eV

  energy without entropy =     -241.64501457  energy(sigma->0) =     -241.64501457


--------------------------------------------------------------------------------------------------------




--------------------------------------- Iteration      1(  18)  ---------------------------------------


    POTLOK:  cpu time      0.0338: real time      0.0339
    SETDIJ:  cpu time      0.0083: real time      0.0083
     EDDAV:  cpu time      2.8228: real time      2.8406
       DOS:  cpu time      0.0011: real time      0.0011
    CHARGE:  cpu time      0.1188: real time      0.1195
    MIXING:  cpu time      0.0012: real time      0.0013
    --------------------------------------------
      LOOP:  cpu time      2.9860: real time      3.0048

 eigenvalue-minimisations  :  6376
 total energy-change (2. order) :-0.8531078E-06  (-0.9539294E-07)
 number of electron     160.0000022 magnetization      -0.0000928
 augmentation part       15.0593476 magnetization      -0.0000843

 Broyden mixing:
  rms(total) = 0.27690E-03    rms(broyden)= 0.27689E-03
  rms(prec ) = 0.33678E-03
  weight for this iteration     100.00

 eigenvalues of (default mixing * dielectric matrix)
  average eigenvalue GAMMA=   1.2340
  2.7903  2.4607  1.7243  1.3912  1.3912  1.1224  0.8562  0.8562  0.7914  0.7914
  0.5894  0.6389  0.6389

 Free energy of the ion-electron system (eV)
  ---------------------------------------------------
  alpha Z        PSCENC =       419.57651402
  Ewald energy   TEWEN  =     -7012.02830964
  -Hartree energ DENC   =     -3139.56876835
  -exchange      EXHF   =         0.00000000
  -V(xc)+E(xc)   XCENC  =       437.01081562
  PAW double counting   =     21463.70095312   -21288.38848668
  entropy T*S    EENTRO =        -0.00000000
  eigenvalues    EBANDS =      -873.72815303
  atomic energy  EATOM  =      9751.78041952
  Solvation  Ediel_sol  =         0.00000000
  ---------------------------------------------------
  free energy    TOTEN  =      -241.64501542 eV

  energy without entropy =     -241.64501542  energy(sigma->0) =     -241.64501542


--------------------------------------------------------------------------------------------------------




--------------------------------------- Iteration      1(  19)  ---------------------------------------


    POTLOK:  cpu time      0.0321: real time      0.0322
    SETDIJ:  cpu time      0.0085: real time      0.0085
     EDDAV:  cpu time      2.8677: real time      2.8795
       DOS:  cpu time      0.0012: real time      0.0012
    CHARGE:  cpu time      0.1204: real time      0.1208
    MIXING:  cpu time      0.0015: real time      0.0015
    --------------------------------------------
      LOOP:  cpu time      3.0314: real time      3.0438

 eigenvalue-minimisations  :  6360
 total energy-change (2. order) : 0.1636909E-07  (-0.3135082E-07)
 number of electron     160.0000022 magnetization      -0.0000305
 augmentation part       15.0593082 magnetization      -0.0000242

 Broyden mixing:
  rms(total) = 0.15994E-03    rms(broyden)= 0.15994E-03
  rms(prec ) = 0.19221E-03
  weight for this iteration     100.00

 eigenvalues of (default mixing * dielectric matrix)
  average eigenvalue GAMMA=   1.2313
  2.8216  2.6261  1.8175  1.4146  1.4146  0.9543  0.9543  0.9522  0.8401  0.8401
  0.7516  0.5911  0.6229  0.6378

 Free energy of the ion-electron system (eV)
  ---------------------------------------------------
  alpha Z        PSCENC =       419.57651402
  Ewald energy   TEWEN  =     -7012.02830964
  -Hartree energ DENC   =     -3139.57567211
  -exchange      EXHF   =         0.00000000
  -V(xc)+E(xc)   XCENC  =       437.01106345
  PAW double counting   =     21463.43755121   -21288.12488701
  entropy T*S    EENTRO =        -0.00000000
  eigenvalues    EBANDS =      -873.72169484
  atomic energy  EATOM  =      9751.78041952
  Solvation  Ediel_sol  =         0.00000000
  ---------------------------------------------------
  free energy    TOTEN  =      -241.64501540 eV

  energy without entropy =     -241.64501540  energy(sigma->0) =     -241.64501540


--------------------------------------------------------------------------------------------------------




--------------------------------------- Iteration      1(  20)  ---------------------------------------


    POTLOK:  cpu time      0.0310: real time      0.0311
    SETDIJ:  cpu time      0.0085: real time      0.0085
     EDDAV:  cpu time      2.7623: real time      2.7760
       DOS:  cpu time      0.0011: real time      0.0011
    CHARGE:  cpu time      0.1091: real time      0.1095
    MIXING:  cpu time      0.0013: real time      0.0013
    --------------------------------------------
      LOOP:  cpu time      2.9132: real time      2.9276

 eigenvalue-minimisations  :  6288
 total energy-change (2. order) : 0.3788955E-07  (-0.7300582E-08)
 number of electron     160.0000022 magnetization      -0.0000085
 augmentation part       15.0592951 magnetization      -0.0000085

 Broyden mixing:
  rms(total) = 0.81179E-04    rms(broyden)= 0.81173E-04
  rms(prec ) = 0.91703E-04
  weight for this iteration     100.00

 eigenvalues of (default mixing * dielectric matrix)
  average eigenvalue GAMMA=   1.2251
  2.7833  2.7833  1.9892  1.4978  1.1644  1.1644  1.0399  0.8614  0.8614  0.8266
  0.8266  0.7375  0.5885  0.6263  0.6263

 Free energy of the ion-electron system (eV)
  ---------------------------------------------------
  alpha Z        PSCENC =       419.57651402
  Ewald energy   TEWEN  =     -7012.02830964
  -Hartree energ DENC   =     -3139.57954021
  -exchange      EXHF   =         0.00000000
  -V(xc)+E(xc)   XCENC  =       437.01126896
  PAW double counting   =     21463.55598724   -21288.24326715
  entropy T*S    EENTRO =        -0.00000000
  eigenvalues    EBANDS =      -873.71808810
  atomic energy  EATOM  =      9751.78041952
  Solvation  Ediel_sol  =         0.00000000
  ---------------------------------------------------
  free energy    TOTEN  =      -241.64501537 eV

  energy without entropy =     -241.64501537  energy(sigma->0) =     -241.64501537


--------------------------------------------------------------------------------------------------------




--------------------------------------- Iteration      1(  21)  ---------------------------------------


    POTLOK:  cpu time      0.0312: real time      0.0313
    SETDIJ:  cpu time      0.0085: real time      0.0085
     EDDAV:  cpu time      2.2167: real time      2.2264
       DOS:  cpu time      0.0011: real time      0.0011
    CHARGE:  cpu time      0.1088: real time      0.1090
    MIXING:  cpu time      0.0015: real time      0.0015
    --------------------------------------------
      LOOP:  cpu time      2.3677: real time      2.3778

 eigenvalue-minimisations  :  4360
 total energy-change (2. order) :-0.2292472E-07  (-0.1648281E-08)
 number of electron     160.0000022 magnetization      -0.0000049
 augmentation part       15.0592749 magnetization      -0.0000043

 Broyden mixing:
  rms(total) = 0.24550E-04    rms(broyden)= 0.24546E-04
  rms(prec ) = 0.30085E-04
  weight for this iteration     100.00

 eigenvalues of (default mixing * dielectric matrix)
  average eigenvalue GAMMA=   1.2566
  2.9040  2.7950  2.0762  1.6937  1.5111  1.2044  0.9979  0.9979  0.8244  0.8244
  0.9211  0.7839  0.7351  0.5904  0.6244  0.6213

 Free energy of the ion-electron system (eV)
  ---------------------------------------------------
  alpha Z        PSCENC =       419.57651402
  Ewald energy   TEWEN  =     -7012.02830964
  -Hartree energ DENC   =     -3139.58103468
  -exchange      EXHF   =         0.00000000
  -V(xc)+E(xc)   XCENC  =       437.01135480
  PAW double counting   =     21463.72118213   -21288.40853478
  entropy T*S    EENTRO =        -0.00000000
  eigenvalues    EBANDS =      -873.71660676
  atomic energy  EATOM  =      9751.78041952
  Solvation  Ediel_sol  =         0.00000000
  ---------------------------------------------------
  free energy    TOTEN  =      -241.64501539 eV

  energy without entropy =     -241.64501539  energy(sigma->0) =     -241.64501539


--------------------------------------------------------------------------------------------------------




--------------------------------------- Iteration      1(  22)  ---------------------------------------


    POTLOK:  cpu time      0.0308: real time      0.0309
    SETDIJ:  cpu time      0.0081: real time      0.0081
     EDDAV:  cpu time      2.2238: real time      2.2494
       DOS:  cpu time      0.0012: real time      0.0012
    CHARGE:  cpu time      0.1211: real time      0.1218
    MIXING:  cpu time      0.0016: real time      0.0016
    --------------------------------------------
      LOOP:  cpu time      2.3866: real time      2.4130

 eigenvalue-minimisations  :  3928
 total energy-change (2. order) :-0.4212052E-07  (-0.4731578E-09)
 number of electron     160.0000022 magnetization       0.0000005
 augmentation part       15.0592720 magnetization       0.0000009

 Broyden mixing:
  rms(total) = 0.20439E-04    rms(broyden)= 0.20439E-04
  rms(prec ) = 0.23014E-04
  weight for this iteration     100.00

 eigenvalues of (default mixing * dielectric matrix)
  average eigenvalue GAMMA=   1.2528
  3.0962  2.6798  2.3492  1.6535  1.4615  1.4615  1.0272  0.9319  0.9319  0.8387
  0.8387  0.7596  0.7596  0.6531  0.6531  0.5891  0.6132

 Free energy of the ion-electron system (eV)
  ---------------------------------------------------
  alpha Z        PSCENC =       419.57651402
  Ewald energy   TEWEN  =     -7012.02830964
  -Hartree energ DENC   =     -3139.58230836
  -exchange      EXHF   =         0.00000000
  -V(xc)+E(xc)   XCENC  =       437.01144865
  PAW double counting   =     21463.79712374   -21288.48459140
  entropy T*S    EENTRO =        -0.00000000
  eigenvalues    EBANDS =      -873.71531195
  atomic energy  EATOM  =      9751.78041952
  Solvation  Ediel_sol  =         0.00000000
  ---------------------------------------------------
  free energy    TOTEN  =      -241.64501543 eV

  energy without entropy =     -241.64501543  energy(sigma->0) =     -241.64501543


--------------------------------------------------------------------------------------------------------




--------------------------------------- Iteration      1(  23)  ---------------------------------------


    POTLOK:  cpu time      0.0330: real time      0.0332
    SETDIJ:  cpu time      0.0085: real time      0.0085
     EDDAV:  cpu time      2.0733: real time      2.0824
       DOS:  cpu time      0.0011: real time      0.0012
    --------------------------------------------
      LOOP:  cpu time      2.1159: real time      2.1254

 eigenvalue-minimisations  :  3584
 total energy-change (2. order) :-0.5680704E-08  (-0.4960630E-10)
 number of electron     160.0000022 magnetization       0.0000005
 augmentation part       15.0592720 magnetization       0.0000009

 Free energy of the ion-electron system (eV)
  ---------------------------------------------------
  alpha Z        PSCENC =       419.57651402
  Ewald energy   TEWEN  =     -7012.02830964
  -Hartree energ DENC   =     -3139.58241167
  -exchange      EXHF   =         0.00000000
  -V(xc)+E(xc)   XCENC  =       437.01145441
  PAW double counting   =     21463.79093015   -21288.47842584
  entropy T*S    EENTRO =        -0.00000000
  eigenvalues    EBANDS =      -873.71518639
  atomic energy  EATOM  =      9751.78041952
  Solvation  Ediel_sol  =         0.00000000
  ---------------------------------------------------
  free energy    TOTEN  =      -241.64501544 eV

  energy without entropy =     -241.64501544  energy(sigma->0) =     -241.64501544


--------------------------------------------------------------------------------------------------------




 average (electrostatic) potential at core
  the test charge radii are     0.9748  1.2598  0.9587  0.7215
  (the norm of the test charge is              1.0000)
       1 -25.7558       2 -25.7558       3 -25.7558       4 -25.7558       5 -28.0312
       6 -28.0312       7 -28.0312       8 -28.0312       9 -87.7010      10 -87.7010
      11 -87.7010      12 -87.7010      13 -72.6914      14 -72.6914      15 -72.6914
      16 -72.6914      17 -72.6914      18 -72.6914      19 -72.6914      20 -72.6914
      21 -72.0181      22 -72.0181      23 -72.0181      24 -72.0181      25 -72.7162
      26 -72.7162      27 -72.7162      28 -72.7162      29 -72.7779      30 -72.7779
      31 -72.7779      32 -72.7779
 
 
 
 E-fermi :   1.4913     XC(G=0): -10.0411     alpha+bet :-10.7880

 Fermi energy:         1.4912977679

 spin component 1

 k-point     1 :       0.0000    0.0000    0.0000
  band No.  band energies     occupation 
      1     -19.2070      1.00000
      2     -19.0083      1.00000
      3     -18.9896      1.00000
      4     -18.9567      1.00000
      5     -16.7200      1.00000
      6     -16.6983      1.00000
      7     -16.6228      1.00000
      8     -16.5454      1.00000
      9     -16.5239      1.00000
     10     -16.4949      1.00000
     11     -16.4782      1.00000
     12     -16.4665      1.00000
     13     -16.4566      1.00000
     14     -16.4506      1.00000
     15     -16.4375      1.00000
     16     -16.4259      1.00000
     17     -14.7436      1.00000
     18     -14.7416      1.00000
     19     -14.2798      1.00000
     20     -14.2453      1.00000
     21      -6.9964      1.00000
     22      -6.7345      1.00000
     23      -6.5993      1.00000
     24      -6.2884      1.00000
     25      -4.7632      1.00000
     26      -4.6905      1.00000
     27      -4.6110      1.00000
     28      -4.4699      1.00000
     29      -4.4421      1.00000
     30      -4.1750      1.00000
     31      -4.1605      1.00000
     32      -4.0213      1.00000
     33      -3.9096      1.00000
     34      -3.9011      1.00000
     35      -3.7605      1.00000
     36      -3.6834      1.00000
     37      -2.4579      1.00000
     38      -2.3933      1.00000
     39      -2.3758      1.00000
     40      -2.2484      1.00000
     41      -2.2329      1.00000
     42      -2.1325      1.00000
     43      -1.9667      1.00000
     44      -1.8617      1.00000
     45      -1.7528      1.00000
     46      -1.6609      1.00000
     47      -1.6371      1.00000
     48      -1.4432      1.00000
     49      -1.3307      1.00000
     50      -1.1741      1.00000
     51      -1.1596      1.00000
     52      -1.1228      1.00000
     53      -1.1159      1.00000
     54      -1.0734      1.00000
     55      -0.7260      1.00000
     56      -0.7104      1.00000
     57      -0.5305      1.00000
     58      -0.4452      1.00000
     59      -0.3855      1.00000
     60      -0.2786      1.00000
     61      -0.2350      1.00000
     62      -0.1759      1.00000
     63      -0.1658      1.00000
     64      -0.1571      1.00000
     65       0.1338      1.00000
     66       0.1831      1.00000
     67       0.2145      1.00000
     68       0.2188      1.00000
     69       0.3237      1.00000
     70       0.3353      1.00000
     71       0.3933      1.00000
     72       0.4107      1.00000
     73       0.5158      1.00000
     74       0.6118      1.00000
     75       0.7712      1.00000
     76       0.7827      1.00000
     77       0.8385      1.00000
     78       0.8988      1.00000
     79       1.0360      1.00000
     80       1.1770      1.00000
     81       4.1421      0.00000
     82       4.2758      0.00000
     83       4.4100      0.00000
     84       4.5947      0.00000
     85       4.7073      0.00000
     86       4.7514      0.00000
     87       4.7601      0.00000
     88       4.8090      0.00000
     89       4.8929      0.00000
     90       4.9506      0.00000
     91       5.5276      0.00000
     92       5.5541      0.00000
     93       5.7058      0.00000
     94       5.9382      0.00000
     95       6.2580      0.00000
     96       6.4681      0.00000
     97       6.6154      0.00000
     98       6.7271      0.00000
     99       7.6534      0.00000
    100       7.9884      0.00000
    101       7.9936      0.00000
    102      10.2642      0.00000
    103      10.2839      0.00000
    104      10.5000      0.00000
    105      10.6569      0.00000
    106      10.6669      0.00000
    107      10.8938      0.00000
    108      10.9941      0.00000
    109      11.0153      0.00000
    110      11.3512      0.00000
    111      11.4861      0.00000
    112      11.5613      0.00000
    113      11.7792      0.00000
    114      11.8039      0.00000
    115      11.9767      0.00000
    116      12.2244      0.00000

 k-point     2 :       0.2500    0.0000    0.0000
  band No.  band energies     occupation 
      1     -19.1624      1.00000
      2     -19.0185      1.00000
      3     -18.9654      1.00000
      4     -18.9416      1.00000
      5     -16.7392      1.00000
      6     -16.7130      1.00000
      7     -16.6724      1.00000
      8     -16.5538      1.00000
      9     -16.5376      1.00000
     10     -16.5242      1.00000
     11     -16.4879      1.00000
     12     -16.4686      1.00000
     13     -16.4666      1.00000
     14     -16.4582      1.00000
     15     -16.4452      1.00000
     16     -16.4223      1.00000
     17     -14.7370      1.00000
     18     -14.7346      1.00000
     19     -14.2748      1.00000
     20     -14.2506      1.00000
     21      -6.8584      1.00000
     22      -6.5731      1.00000
     23      -6.5636      1.00000
     24      -6.2029      1.00000
     25      -4.7056      1.00000
     26      -4.6869      1.00000
     27      -4.6636      1.00000
     28      -4.3675      1.00000
     29      -4.3250      1.00000
     30      -4.2408      1.00000
     31      -4.1966      1.00000
     32      -3.9807      1.00000
     33      -3.9077      1.00000
     34      -3.8210      1.00000
     35      -3.6399      1.00000
     36      -3.6054      1.00000
     37      -2.4283      1.00000
     38      -2.4205      1.00000
     39      -2.4145      1.00000
     40      -2.2448      1.00000
     41      -2.1977      1.00000
     42      -2.1149      1.00000
     43      -2.0197      1.00000
     44      -1.9269      1.00000
     45      -1.7891      1.00000
     46      -1.6988      1.00000
     47      -1.6966      1.00000
     48      -1.4636      1.00000
     49      -1.4630      1.00000
     50      -1.3328      1.00000
     51      -1.3002      1.00000
     52      -1.2004      1.00000
     53      -1.1935      1.00000
     54      -0.7648      1.00000
     55      -0.7627      1.00000
     56      -0.7353      1.00000
     57      -0.6342      1.00000
     58      -0.5264      1.00000
     59      -0.3778      1.00000
     60      -0.2902      1.00000
     61      -0.2838      1.00000
     62      -0.2131      1.00000
     63      -0.1724      1.00000
     64      -0.0962      1.00000
     65      -0.0327      1.00000
     66       0.0310      1.00000
     67       0.1673      1.00000
     68       0.2013      1.00000
     69       0.2812      1.00000
     70       0.3149      1.00000
     71       0.3548      1.00000
     72       0.3553      1.00000
     73       0.4956      1.00000
     74       0.5949      1.00000
     75       0.7093      1.00000
     76       0.7952      1.00000
     77       0.8171      1.00000
     78       0.9120      1.00000
     79       0.9953      1.00000
     80       1.0539      1.00000
     81       4.1595      0.00000
     82       4.2756      0.00000
     83       4.3259      0.00000
     84       4.4863      0.00000
     85       4.6027      0.00000
     86       4.7428      0.00000
     87       4.7769      0.00000
     88       4.8018      0.00000
     89       4.8119      0.00000
     90       4.9398      0.00000
     91       5.4495      0.00000
     92       5.4839      0.00000
     93       6.1252      0.00000
     94       6.3024      0.00000
     95       6.5432      0.00000
     96       6.5572      0.00000
     97       6.7759      0.00000
     98       6.8087      0.00000
     99       7.8496      0.00000
    100       8.0670      0.00000
    101       8.3339      0.00000
    102      10.1963      0.00000
    103      10.2819      0.00000
    104      10.3483      0.00000
    105      10.6695      0.00000
    106      10.7930      0.00000
    107      10.9796      0.00000
    108      11.0711      0.00000
    109      11.1138      0.00000
    110      11.2982      0.00000
    111      11.4307      0.00000
    112      11.5629      0.00000
    113      11.8679      0.00000
    114      11.9147      0.00000
    115      11.9555      0.00000
    116      12.0440      0.00000

 k-point     3 :       0.5000    0.0000    0.0000
  band No.  band energies     occupation 
      1     -19.0731      1.00000
      2     -19.0731      1.00000
      3     -18.9333      1.00000
      4     -18.9333      1.00000
      5     -16.7268      1.00000
      6     -16.7268      1.00000
      7     -16.6969      1.00000
      8     -16.6969      1.00000
      9     -16.5239      1.00000
     10     -16.5239      1.00000
     11     -16.4741      1.00000
     12     -16.4741      1.00000
     13     -16.4713      1.00000
     14     -16.4713      1.00000
     15     -16.4356      1.00000
     16     -16.4356      1.00000
     17     -14.7293      1.00000
     18     -14.7293      1.00000
     19     -14.2629      1.00000
     20     -14.2629      1.00000
     21      -6.6362      1.00000
     22      -6.6362      1.00000
     23      -6.2586      1.00000
     24      -6.2586      1.00000
     25      -4.7275      1.00000
     26      -4.7275      1.00000
     27      -4.4292      1.00000
     28      -4.4292      1.00000
     29      -4.2023      1.00000
     30      -4.2023      1.00000
     31      -4.0789      1.00000
     32      -4.0789      1.00000
     33      -3.6947      1.00000
     34      -3.6947      1.00000
     35      -3.6817      1.00000
     36      -3.6817      1.00000
     37      -2.4213      1.00000
     38      -2.4213      1.00000
     39      -2.3654      1.00000
     40      -2.3654      1.00000
     41      -2.1860      1.00000
     42      -2.1860      1.00000
     43      -2.0025      1.00000
     44      -2.0025      1.00000
     45      -1.6951      1.00000
     46      -1.6951      1.00000
     47      -1.6401      1.00000
     48      -1.6401      1.00000
     49      -1.5551      1.00000
     50      -1.5551      1.00000
     51      -1.4536      1.00000
     52      -1.4536      1.00000
     53      -0.8317      1.00000
     54      -0.8317      1.00000
     55      -0.8172      1.00000
     56      -0.8172      1.00000
     57      -0.7354      1.00000
     58      -0.7354      1.00000
     59      -0.3352      1.00000
     60      -0.3352      1.00000
     61      -0.2844      1.00000
     62      -0.2844      1.00000
     63      -0.2093      1.00000
     64      -0.2093      1.00000
     65       0.0710      1.00000
     66       0.0710      1.00000
     67       0.0863      1.00000
     68       0.0863      1.00000
     69       0.2779      1.00000
     70       0.2779      1.00000
     71       0.3277      1.00000
     72       0.3277      1.00000
     73       0.5469      1.00000
     74       0.5469      1.00000
     75       0.7850      1.00000
     76       0.7850      1.00000
     77       0.8887      1.00000
     78       0.8887      1.00000
     79       0.9038      1.00000
     80       0.9038      1.00000
     81       4.2608      0.00000
     82       4.2608      0.00000
     83       4.2790      0.00000
     84       4.2790      0.00000
     85       4.5603      0.00000
     86       4.5603      0.00000
     87       4.8023      0.00000
     88       4.8023      0.00000
     89       4.8870      0.00000
     90       4.8870      0.00000
     91       5.4096      0.00000
     92       5.4096      0.00000
     93       6.5295      0.00000
     94       6.5295      0.00000
     95       6.6890      0.00000
     96       6.6891      0.00000
     97       6.9404      0.00000
     98       6.9404      0.00000
     99       8.1429      0.00000
    100       8.1429      0.00000
    101       9.2432      0.00000
    102       9.2432      0.00000
    103      10.3375      0.00000
    104      10.3375      0.00000
    105      10.8515      0.00000
    106      10.8515      0.00000
    107      11.1183      0.00000
    108      11.1183      0.00000
    109      11.1799      0.00000
    110      11.1799      0.00000
    111      11.5600      0.00000
    112      11.5600      0.00000
    113      11.7993      0.00000
    114      11.7993      0.00000
    115      12.1636      0.00000
    116      12.1652      0.00000

 k-point     4 :       0.0000    0.3333    0.0000
  band No.  band energies     occupation 
      1     -19.1595      1.00000
      2     -19.0598      1.00000
      3     -18.9803      1.00000
      4     -18.9634      1.00000
      5     -16.7322      1.00000
      6     -16.6590      1.00000
      7     -16.6136      1.00000
      8     -16.5633      1.00000
      9     -16.5288      1.00000
     10     -16.4944      1.00000
     11     -16.4904      1.00000
     12     -16.4768      1.00000
     13     -16.4473      1.00000
     14     -16.4447      1.00000
     15     -16.4429      1.00000
     16     -16.4376      1.00000
     17     -14.7368      1.00000
     18     -14.7352      1.00000
     19     -14.2720      1.00000
     20     -14.2546      1.00000
     21      -6.8978      1.00000
     22      -6.6617      1.00000
     23      -6.6325      1.00000
     24      -6.4518      1.00000
     25      -4.7003      1.00000
     26      -4.6567      1.00000
     27      -4.4684      1.00000
     28      -4.3720      1.00000
     29      -4.3406      1.00000
     30      -4.2370      1.00000
     31      -4.1911      1.00000
     32      -4.0570      1.00000
     33      -4.0047      1.00000
     34      -3.9598      1.00000
     35      -3.9449      1.00000
     36      -3.8209      1.00000
     37      -2.5093      1.00000
     38      -2.3678      1.00000
     39      -2.3246      1.00000
     40      -2.2770      1.00000
     41      -2.2406      1.00000
     42      -2.2267      1.00000
     43      -1.8417      1.00000
     44      -1.7374      1.00000
     45      -1.7000      1.00000
     46      -1.5129      1.00000
     47      -1.5036      1.00000
     48      -1.3696      1.00000
     49      -1.3676      1.00000
     50      -1.3536      1.00000
     51      -1.1503      1.00000
     52      -1.1285      1.00000
     53      -1.0786      1.00000
     54      -0.8864      1.00000
     55      -0.8390      1.00000
     56      -0.6646      1.00000
     57      -0.6242      1.00000
     58      -0.5426      1.00000
     59      -0.4617      1.00000
     60      -0.4245      1.00000
     61      -0.1972      1.00000
     62      -0.1682      1.00000
     63      -0.0775      1.00000
     64       0.0259      1.00000
     65       0.0283      1.00000
     66       0.1457      1.00000
     67       0.1490      1.00000
     68       0.2653      1.00000
     69       0.2963      1.00000
     70       0.3182      1.00000
     71       0.3481      1.00000
     72       0.4060      1.00000
     73       0.5039      1.00000
     74       0.5071      1.00000
     75       0.5970      1.00000
     76       0.7387      1.00000
     77       0.8997      1.00000
     78       0.9048      1.00000
     79       1.2267      1.00000
     80       1.2472      1.00000
     81       4.1658      0.00000
     82       4.2421      0.00000
     83       4.4861      0.00000
     84       4.5823      0.00000
     85       4.7476      0.00000
     86       4.7660      0.00000
     87       4.7858      0.00000
     88       4.7905      0.00000
     89       4.8452      0.00000
     90       4.8854      0.00000
     91       5.5384      0.00000
     92       5.5521      0.00000
     93       5.8461      0.00000
     94       5.9534      0.00000
     95       6.2733      0.00000
     96       6.3951      0.00000
     97       6.6341      0.00000
     98       6.6886      0.00000
     99       7.7385      0.00000
    100       7.9090      0.00000
    101       8.4323      0.00000
    102       9.4914      0.00000
    103      10.4975      0.00000
    104      10.6425      0.00000
    105      10.6647      0.00000
    106      10.7179      0.00000
    107      10.7777      0.00000
    108      10.9555      0.00000
    109      11.2789      0.00000
    110      11.3041      0.00000
    111      11.3453      0.00000
    112      11.4184      0.00000
    113      11.5648      0.00000
    114      11.8497      0.00000
    115      11.9511      0.00000
    116      12.0600      0.00000

 k-point     5 :       0.2500    0.3333    0.0000
  band No.  band energies     occupation 
      1     -19.1197      1.00000
      2     -19.0368      1.00000
      3     -18.9774      1.00000
      4     -18.9543      1.00000
      5     -16.7488      1.00000
      6     -16.6967      1.00000
      7     -16.6569      1.00000
      8     -16.6109      1.00000
      9     -16.5217      1.00000
     10     -16.5051      1.00000
     11     -16.4946      1.00000
     12     -16.4842      1.00000
     13     -16.4589      1.00000
     14     -16.4543      1.00000
     15     -16.4367      1.00000
     16     -16.4307      1.00000
     17     -14.7299      1.00000
     18     -14.7282      1.00000
     19     -14.2699      1.00000
     20     -14.2577      1.00000
     21      -6.7687      1.00000
     22      -6.5932      1.00000
     23      -6.5040      1.00000
     24      -6.3641      1.00000
     25      -4.6798      1.00000
     26      -4.6614      1.00000
     27      -4.4485      1.00000
     28      -4.2960      1.00000
     29      -4.2757      1.00000
     30      -4.2135      1.00000
     31      -4.1680      1.00000
     32      -4.0574      1.00000
     33      -4.0128      1.00000
     34      -3.8638      1.00000
     35      -3.8432      1.00000
     36      -3.7586      1.00000
     37      -2.4783      1.00000
     38      -2.4044      1.00000
     39      -2.2947      1.00000
     40      -2.2933      1.00000
     41      -2.1557      1.00000
     42      -2.1176      1.00000
     43      -1.9360      1.00000
     44      -1.9260      1.00000
     45      -1.8136      1.00000
     46      -1.7060      1.00000
     47      -1.6397      1.00000
     48      -1.5302      1.00000
     49      -1.3946      1.00000
     50      -1.3150      1.00000
     51      -1.2272      1.00000
     52      -1.2177      1.00000
     53      -1.0962      1.00000
     54      -0.9083      1.00000
     55      -0.8262      1.00000
     56      -0.7087      1.00000
     57      -0.7077      1.00000
     58      -0.6544      1.00000
     59      -0.2710      1.00000
     60      -0.2456      1.00000
     61      -0.1831      1.00000
     62      -0.1767      1.00000
     63      -0.1236      1.00000
     64      -0.1222      1.00000
     65       0.0299      1.00000
     66       0.0622      1.00000
     67       0.1334      1.00000
     68       0.1371      1.00000
     69       0.2453      1.00000
     70       0.2618      1.00000
     71       0.2960      1.00000
     72       0.3199      1.00000
     73       0.4102      1.00000
     74       0.5354      1.00000
     75       0.6700      1.00000
     76       0.7519      1.00000
     77       0.8817      1.00000
     78       0.9323      1.00000
     79       1.1133      1.00000
     80       1.1284      1.00000
     81       4.1775      0.00000
     82       4.2449      0.00000
     83       4.3871      0.00000
     84       4.4736      0.00000
     85       4.6165      0.00000
     86       4.7013      0.00000
     87       4.7861      0.00000
     88       4.8074      0.00000
     89       4.8215      0.00000
     90       4.8920      0.00000
     91       5.4642      0.00000
     92       5.4824      0.00000
     93       6.2379      0.00000
     94       6.3170      0.00000
     95       6.5523      0.00000
     96       6.5759      0.00000
     97       6.7533      0.00000
     98       6.7711      0.00000
     99       7.8964      0.00000
    100       8.0057      0.00000
    101       8.7127      0.00000
    102       9.6179      0.00000
    103      10.3450      0.00000
    104      10.4093      0.00000
    105      10.6118      0.00000
    106      10.7615      0.00000
    107      10.9879      0.00000
    108      11.0566      0.00000
    109      11.1745      0.00000
    110      11.2756      0.00000
    111      11.3961      0.00000
    112      11.4468      0.00000
    113      11.7691      0.00000
    114      11.7818      0.00000
    115      11.9197      0.00000
    116      12.0876      0.00000

 k-point     6 :       0.5000    0.3333    0.0000
  band No.  band energies     occupation 
      1     -19.0468      1.00000
      2     -19.0468      1.00000
      3     -18.9589      1.00000
      4     -18.9589      1.00000
      5     -16.7242      1.00000
      6     -16.7242      1.00000
      7     -16.7143      1.00000
      8     -16.7143      1.00000
      9     -16.5143      1.00000
     10     -16.5143      1.00000
     11     -16.4816      1.00000
     12     -16.4816      1.00000
     13     -16.4651      1.00000
     14     -16.4651      1.00000
     15     -16.4347      1.00000
     16     -16.4347      1.00000
     17     -14.7224      1.00000
     18     -14.7224      1.00000
     19     -14.2643      1.00000
     20     -14.2643      1.00000
     21      -6.5847      1.00000
     22      -6.5847      1.00000
     23      -6.3251      1.00000
     24      -6.3251      1.00000
     25      -4.6645      1.00000
     26      -4.6645      1.00000
     27      -4.3263      1.00000
     28      -4.3263      1.00000
     29      -4.1448      1.00000
     30      -4.1448      1.00000
     31      -4.0953      1.00000
     32      -4.0953      1.00000
     33      -3.8547      1.00000
     34      -3.8547      1.00000
     35      -3.7715      1.00000
     36      -3.7715      1.00000
     37      -2.3789      1.00000
     38      -2.3789      1.00000
     39      -2.2916      1.00000
     40      -2.2916      1.00000
     41      -2.1947      1.00000
     42      -2.1947      1.00000
     43      -2.0071      1.00000
     44      -2.0071      1.00000
     45      -1.8623      1.00000
     46      -1.8623      1.00000
     47      -1.7283      1.00000
     48      -1.7283      1.00000
     49      -1.4408      1.00000
     50      -1.4408      1.00000
     51      -1.3048      1.00000
     52      -1.3048      1.00000
     53      -0.9966      1.00000
     54      -0.9966      1.00000
     55      -0.8901      1.00000
     56      -0.8901      1.00000
     57      -0.7066      1.00000
     58      -0.7066      1.00000
     59      -0.3518      1.00000
     60      -0.3518      1.00000
     61      -0.1429      1.00000
     62      -0.1429      1.00000
     63      -0.1322      1.00000
     64      -0.1322      1.00000
     65       0.0288      1.00000
     66       0.0288      1.00000
     67       0.1759      1.00000
     68       0.1759      1.00000
     69       0.2672      1.00000
     70       0.2672      1.00000
     71       0.3343      1.00000
     72       0.3343      1.00000
     73       0.4157      1.00000
     74       0.4157      1.00000
     75       0.7548      1.00000
     76       0.7548      1.00000
     77       0.8138      1.00000
     78       0.8138      1.00000
     79       1.0574      1.00000
     80       1.0574      1.00000
     81       4.2697      0.00000
     82       4.2697      0.00000
     83       4.2847      0.00000
     84       4.2847      0.00000
     85       4.5390      0.00000
     86       4.5390      0.00000
     87       4.8033      0.00000
     88       4.8033      0.00000
     89       4.8719      0.00000
     90       4.8719      0.00000
     91       5.4199      0.00000
     92       5.4199      0.00000
     93       6.5655      0.00000
     94       6.5655      0.00000
     95       6.7093      0.00000
     96       6.7093      0.00000
     97       6.9474      0.00000
     98       6.9475      0.00000
     99       8.1306      0.00000
    100       8.1306      0.00000
    101       9.4331      0.00000
    102       9.4331      0.00000
    103      10.1061      0.00000
    104      10.1061      0.00000
    105      10.6229      0.00000
    106      10.6229      0.00000
    107      11.1930      0.00000
    108      11.1930      0.00000
    109      11.3225      0.00000
    110      11.3225      0.00000
    111      11.4079      0.00000
    112      11.4079      0.00000
    113      11.7162      0.00000
    114      11.7162      0.00000
    115      12.0686      0.00000
    116      12.0687      0.00000

 k-point     7 :       0.0000    0.0000    0.3333
  band No.  band energies     occupation 
      1     -19.1631      1.00000
      2     -19.0625      1.00000
      3     -18.9871      1.00000
      4     -18.9534      1.00000
      5     -16.7105      1.00000
      6     -16.6997      1.00000
      7     -16.5809      1.00000
      8     -16.5281      1.00000
      9     -16.5083      1.00000
     10     -16.5039      1.00000
     11     -16.4843      1.00000
     12     -16.4776      1.00000
     13     -16.4624      1.00000
     14     -16.4618      1.00000
     15     -16.4588      1.00000
     16     -16.4441      1.00000
     17     -14.6361      1.00000
     18     -14.6191      1.00000
     19     -14.4051      1.00000
     20     -14.3712      1.00000
     21      -6.9420      1.00000
     22      -6.8148      1.00000
     23      -6.5168      1.00000
     24      -6.3590      1.00000
     25      -4.7080      1.00000
     26      -4.6713      1.00000
     27      -4.4373      1.00000
     28      -4.4076      1.00000
     29      -4.3575      1.00000
     30      -4.2586      1.00000
     31      -4.2182      1.00000
     32      -4.0985      1.00000
     33      -4.0819      1.00000
     34      -4.0437      1.00000
     35      -3.7193      1.00000
     36      -3.6860      1.00000
     37      -2.2788      1.00000
     38      -2.2765      1.00000
     39      -2.2040      1.00000
     40      -2.0672      1.00000
     41      -2.0532      1.00000
     42      -2.0306      1.00000
     43      -2.0065      1.00000
     44      -1.9037      1.00000
     45      -1.7080      1.00000
     46      -1.6622      1.00000
     47      -1.5543      1.00000
     48      -1.4115      1.00000
     49      -1.3624      1.00000
     50      -1.2949      1.00000
     51      -1.1488      1.00000
     52      -1.1328      1.00000
     53      -1.0202      1.00000
     54      -1.0137      1.00000
     55      -1.0024      1.00000
     56      -0.7466      1.00000
     57      -0.7274      1.00000
     58      -0.7148      1.00000
     59      -0.5953      1.00000
     60      -0.4046      1.00000
     61      -0.3438      1.00000
     62      -0.1606      1.00000
     63      -0.1036      1.00000
     64       0.0082      1.00000
     65       0.0149      1.00000
     66       0.0337      1.00000
     67       0.1006      1.00000
     68       0.1467      1.00000
     69       0.2416      1.00000
     70       0.2915      1.00000
     71       0.4731      1.00000
     72       0.5406      1.00000
     73       0.5710      1.00000
     74       0.6794      1.00000
     75       0.7491      1.00000
     76       0.8249      1.00000
     77       0.8519      1.00000
     78       0.8751      1.00000
     79       1.0011      1.00000
     80       1.1822      1.00000
     81       4.1673      0.00000
     82       4.2245      0.00000
     83       4.5443      0.00000
     84       4.6024      0.00000
     85       4.8635      0.00000
     86       4.9125      0.00000
     87       4.9516      0.00000
     88       4.9733      0.00000
     89       4.9989      0.00000
     90       5.1268      0.00000
     91       5.3010      0.00000
     92       5.3548      0.00000
     93       5.7645      0.00000
     94       5.8742      0.00000
     95       6.3238      0.00000
     96       6.4147      0.00000
     97       6.6336      0.00000
     98       6.9636      0.00000
     99       7.2244      0.00000
    100       7.6498      0.00000
    101       8.5060      0.00000
    102       9.5359      0.00000
    103      10.5571      0.00000
    104      10.6271      0.00000
    105      10.6729      0.00000
    106      10.6737      0.00000
    107      11.0795      0.00000
    108      11.1062      0.00000
    109      11.2746      0.00000
    110      11.2756      0.00000
    111      11.3704      0.00000
    112      11.4392      0.00000
    113      11.6950      0.00000
    114      11.7240      0.00000
    115      12.0863      0.00000
    116      12.2434      0.00000

 k-point     8 :       0.2500    0.0000    0.3333
  band No.  band energies     occupation 
      1     -19.1211      1.00000
      2     -19.0285      1.00000
      3     -18.9937      1.00000
      4     -18.9494      1.00000
      5     -16.7284      1.00000
      6     -16.7162      1.00000
      7     -16.6283      1.00000
      8     -16.5658      1.00000
      9     -16.5322      1.00000
     10     -16.5079      1.00000
     11     -16.5032      1.00000
     12     -16.4834      1.00000
     13     -16.4704      1.00000
     14     -16.4669      1.00000
     15     -16.4468      1.00000
     16     -16.4380      1.00000
     17     -14.6289      1.00000
     18     -14.6165      1.00000
     19     -14.3986      1.00000
     20     -14.3748      1.00000
     21      -6.7952      1.00000
     22      -6.6514      1.00000
     23      -6.4831      1.00000
     24      -6.2979      1.00000
     25      -4.6642      1.00000
     26      -4.6307      1.00000
     27      -4.5039      1.00000
     28      -4.3139      1.00000
     29      -4.2930      1.00000
     30      -4.2610      1.00000
     31      -4.2183      1.00000
     32      -4.1106      1.00000
     33      -3.9913      1.00000
     34      -3.9900      1.00000
     35      -3.6442      1.00000
     36      -3.6266      1.00000
     37      -2.3147      1.00000
     38      -2.2715      1.00000
     39      -2.1769      1.00000
     40      -2.0980      1.00000
     41      -2.0903      1.00000
     42      -1.9663      1.00000
     43      -1.9570      1.00000
     44      -1.8366      1.00000
     45      -1.7998      1.00000
     46      -1.6804      1.00000
     47      -1.5298      1.00000
     48      -1.5133      1.00000
     49      -1.4726      1.00000
     50      -1.4252      1.00000
     51      -1.2830      1.00000
     52      -1.2383      1.00000
     53      -1.1338      1.00000
     54      -1.0774      1.00000
     55      -1.0575      1.00000
     56      -0.9298      1.00000
     57      -0.7113      1.00000
     58      -0.6792      1.00000
     59      -0.5444      1.00000
     60      -0.3526      1.00000
     61      -0.3518      1.00000
     62      -0.1819      1.00000
     63      -0.1557      1.00000
     64      -0.0882      1.00000
     65      -0.0531      1.00000
     66      -0.0003      1.00000
     67       0.1002      1.00000
     68       0.1082      1.00000
     69       0.3147      1.00000
     70       0.3583      1.00000
     71       0.4612      1.00000
     72       0.5162      1.00000
     73       0.5228      1.00000
     74       0.5551      1.00000
     75       0.6493      1.00000
     76       0.7115      1.00000
     77       0.8590      1.00000
     78       0.8704      1.00000
     79       0.9468      1.00000
     80       1.0627      1.00000
     81       4.1875      0.00000
     82       4.2409      0.00000
     83       4.4582      0.00000
     84       4.4986      0.00000
     85       4.7806      0.00000
     86       4.8588      0.00000
     87       4.8910      0.00000
     88       4.9479      0.00000
     89       5.0232      0.00000
     90       5.1227      0.00000
     91       5.2128      0.00000
     92       5.2528      0.00000
     93       6.1748      0.00000
     94       6.2596      0.00000
     95       6.5609      0.00000
     96       6.5761      0.00000
     97       6.8584      0.00000
     98       6.9977      0.00000
     99       7.4254      0.00000
    100       7.6975      0.00000
    101       8.7948      0.00000
    102       9.7312      0.00000
    103      10.3560      0.00000
    104      10.5287      0.00000
    105      10.7168      0.00000
    106      10.8136      0.00000
    107      10.9477      0.00000
    108      11.1189      0.00000
    109      11.2901      0.00000
    110      11.3140      0.00000
    111      11.3788      0.00000
    112      11.3867      0.00000
    113      11.7031      0.00000
    114      11.8658      0.00000
    115      12.1068      0.00000
    116      12.1773      0.00000

 k-point     9 :       0.5000    0.0000    0.3333
  band No.  band energies     occupation 
      1     -19.0394      1.00000
      2     -19.0394      1.00000
      3     -18.9696      1.00000
      4     -18.9696      1.00000
      5     -16.7083      1.00000
      6     -16.7083      1.00000
      7     -16.6941      1.00000
      8     -16.6941      1.00000
      9     -16.5224      1.00000
     10     -16.5224      1.00000
     11     -16.4953      1.00000
     12     -16.4953      1.00000
     13     -16.4617      1.00000
     14     -16.4617      1.00000
     15     -16.4455      1.00000
     16     -16.4455      1.00000
     17     -14.6180      1.00000
     18     -14.6180      1.00000
     19     -14.3853      1.00000
     20     -14.3853      1.00000
     21      -6.5519      1.00000
     22      -6.5519      1.00000
     23      -6.3662      1.00000
     24      -6.3662      1.00000
     25      -4.6033      1.00000
     26      -4.6033      1.00000
     27      -4.4426      1.00000
     28      -4.4426      1.00000
     29      -4.1830      1.00000
     30      -4.1830      1.00000
     31      -4.1179      1.00000
     32      -4.1179      1.00000
     33      -3.7681      1.00000
     34      -3.7681      1.00000
     35      -3.7521      1.00000
     36      -3.7521      1.00000
     37      -2.2665      1.00000
     38      -2.2665      1.00000
     39      -2.2194      1.00000
     40      -2.2194      1.00000
     41      -2.0424      1.00000
     42      -2.0424      1.00000
     43      -1.8398      1.00000
     44      -1.8398      1.00000
     45      -1.8219      1.00000
     46      -1.8219      1.00000
     47      -1.6096      1.00000
     48      -1.6096      1.00000
     49      -1.4750      1.00000
     50      -1.4750      1.00000
     51      -1.3036      1.00000
     52      -1.3036      1.00000
     53      -1.1592      1.00000
     54      -1.1592      1.00000
     55      -0.9878      1.00000
     56      -0.9878      1.00000
     57      -0.9620      1.00000
     58      -0.9620      1.00000
     59      -0.5670      1.00000
     60      -0.5670      1.00000
     61      -0.3103      1.00000
     62      -0.3103      1.00000
     63      -0.1281      1.00000
     64      -0.1281      1.00000
     65       0.0880      1.00000
     66       0.0880      1.00000
     67       0.2060      1.00000
     68       0.2060      1.00000
     69       0.3011      1.00000
     70       0.3011      1.00000
     71       0.3490      1.00000
     72       0.3490      1.00000
     73       0.6125      1.00000
     74       0.6125      1.00000
     75       0.7370      1.00000
     76       0.7371      1.00000
     77       0.7566      1.00000
     78       0.7566      1.00000
     79       0.8919      1.00000
     80       0.8919      1.00000
     81       4.3039      0.00000
     82       4.3039      0.00000
     83       4.3238      0.00000
     84       4.3238      0.00000
     85       4.6987      0.00000
     86       4.6987      0.00000
     87       4.9287      0.00000
     88       4.9287      0.00000
     89       5.0893      0.00000
     90       5.0893      0.00000
     91       5.1564      0.00000
     92       5.1564      0.00000
     93       6.5714      0.00000
     94       6.5714      0.00000
     95       6.6681      0.00000
     96       6.6681      0.00000
     97       7.0992      0.00000
     98       7.0992      0.00000
     99       7.7362      0.00000
    100       7.7362      0.00000
    101       9.5613      0.00000
    102       9.5613      0.00000
    103      10.1698      0.00000
    104      10.1698      0.00000
    105      10.8602      0.00000
    106      10.8602      0.00000
    107      11.0071      0.00000
    108      11.0071      0.00000
    109      11.2737      0.00000
    110      11.2737      0.00000
    111      11.3958      0.00000
    112      11.3958      0.00000
    113      11.9653      0.00000
    114      11.9653      0.00000
    115      12.0558      0.00000
    116      12.0558      0.00000

 k-point    10 :       0.0000    0.3333    0.3333
  band No.  band energies     occupation 
      1     -19.1317      1.00000
      2     -19.0785      1.00000
      3     -18.9843      1.00000
      4     -18.9685      1.00000
      5     -16.7264      1.00000
      6     -16.6924      1.00000
      7     -16.6010      1.00000
      8     -16.5710      1.00000
      9     -16.5187      1.00000
     10     -16.4989      1.00000
     11     -16.4817      1.00000
     12     -16.4723      1.00000
     13     -16.4509      1.00000
     14     -16.4472      1.00000
     15     -16.4447      1.00000
     16     -16.4273      1.00000
     17     -14.6287      1.00000
     18     -14.6200      1.00000
     19     -14.3946      1.00000
     20     -14.3777      1.00000
     21      -6.8474      1.00000
     22      -6.7244      1.00000
     23      -6.6031      1.00000
     24      -6.5001      1.00000
     25      -4.6929      1.00000
     26      -4.6629      1.00000
     27      -4.4088      1.00000
     28      -4.3221      1.00000
     29      -4.2931      1.00000
     30      -4.2137      1.00000
     31      -4.1762      1.00000
     32      -4.1738      1.00000
     33      -4.0039      1.00000
     34      -3.9737      1.00000
     35      -3.9120      1.00000
     36      -3.8421      1.00000
     37      -2.3277      1.00000
     38      -2.2198      1.00000
     39      -2.1910      1.00000
     40      -2.1438      1.00000
     41      -2.1017      1.00000
     42      -2.0339      1.00000
     43      -1.8540      1.00000
     44      -1.7450      1.00000
     45      -1.7429      1.00000
     46      -1.6048      1.00000
     47      -1.5302      1.00000
     48      -1.4976      1.00000
     49      -1.3814      1.00000
     50      -1.3535      1.00000
     51      -1.3324      1.00000
     52      -1.2197      1.00000
     53      -1.1569      1.00000
     54      -0.9224      1.00000
     55      -0.8219      1.00000
     56      -0.7565      1.00000
     57      -0.7086      1.00000
     58      -0.7033      1.00000
     59      -0.4727      1.00000
     60      -0.4719      1.00000
     61      -0.3610      1.00000
     62      -0.2750      1.00000
     63      -0.1148      1.00000
     64      -0.0841      1.00000
     65       0.0059      1.00000
     66       0.0333      1.00000
     67       0.2065      1.00000
     68       0.2524      1.00000
     69       0.2536      1.00000
     70       0.3038      1.00000
     71       0.4828      1.00000
     72       0.5596      1.00000
     73       0.5769      1.00000
     74       0.6114      1.00000
     75       0.6999      1.00000
     76       0.7355      1.00000
     77       0.8491      1.00000
     78       0.8566      1.00000
     79       1.1518      1.00000
     80       1.2236      1.00000
     81       4.1931      0.00000
     82       4.2315      0.00000
     83       4.5400      0.00000
     84       4.5838      0.00000
     85       4.8633      0.00000
     86       4.9006      0.00000
     87       4.9286      0.00000
     88       4.9740      0.00000
     89       5.0087      0.00000
     90       5.0787      0.00000
     91       5.3241      0.00000
     92       5.3502      0.00000
     93       5.8728      0.00000
     94       5.9240      0.00000
     95       6.3043      0.00000
     96       6.3581      0.00000
     97       6.7169      0.00000
     98       6.8723      0.00000
     99       7.3404      0.00000
    100       7.5454      0.00000
    101       8.8743      0.00000
    102       9.5002      0.00000
    103      10.3617      0.00000
    104      10.4934      0.00000
    105      10.6879      0.00000
    106      10.7145      0.00000
    107      11.0345      0.00000
    108      11.1332      0.00000
    109      11.2810      0.00000
    110      11.3250      0.00000
    111      11.3464      0.00000
    112      11.4219      0.00000
    113      11.4447      0.00000
    114      11.7121      0.00000
    115      11.9538      0.00000
    116      12.1066      0.00000

 k-point    11 :       0.2500    0.3333    0.3333
  band No.  band energies     occupation 
      1     -19.0935      1.00000
      2     -19.0458      1.00000
      3     -18.9844      1.00000
      4     -18.9642      1.00000
      5     -16.7462      1.00000
      6     -16.7205      1.00000
      7     -16.6459      1.00000
      8     -16.6214      1.00000
      9     -16.5175      1.00000
     10     -16.5005      1.00000
     11     -16.4902      1.00000
     12     -16.4788      1.00000
     13     -16.4625      1.00000
     14     -16.4599      1.00000
     15     -16.4343      1.00000
     16     -16.4232      1.00000
     17     -14.6219      1.00000
     18     -14.6154      1.00000
     19     -14.3913      1.00000
     20     -14.3793      1.00000
     21      -6.7180      1.00000
     22      -6.5942      1.00000
     23      -6.5365      1.00000
     24      -6.4242      1.00000
     25      -4.6425      1.00000
     26      -4.6350      1.00000
     27      -4.3756      1.00000
     28      -4.3049      1.00000
     29      -4.2464      1.00000
     30      -4.2339      1.00000
     31      -4.1906      1.00000
     32      -4.0883      1.00000
     33      -4.0078      1.00000
     34      -3.9140      1.00000
     35      -3.7670      1.00000
     36      -3.7558      1.00000
     37      -2.3257      1.00000
     38      -2.2398      1.00000
     39      -2.1931      1.00000
     40      -2.1409      1.00000
     41      -2.0565      1.00000
     42      -2.0159      1.00000
     43      -1.9822      1.00000
     44      -1.8575      1.00000
     45      -1.7997      1.00000
     46      -1.7113      1.00000
     47      -1.5670      1.00000
     48      -1.5533      1.00000
     49      -1.4433      1.00000
     50      -1.3660      1.00000
     51      -1.3444      1.00000
     52      -1.3189      1.00000
     53      -1.2019      1.00000
     54      -1.1784      1.00000
     55      -0.9312      1.00000
     56      -0.8606      1.00000
     57      -0.7111      1.00000
     58      -0.6587      1.00000
     59      -0.5376      1.00000
     60      -0.4485      1.00000
     61      -0.2343      1.00000
     62      -0.1672      1.00000
     63      -0.1422      1.00000
     64      -0.0336      1.00000
     65       0.0174      1.00000
     66       0.0497      1.00000
     67       0.0789      1.00000
     68       0.1801      1.00000
     69       0.2587      1.00000
     70       0.3339      1.00000
     71       0.3795      1.00000
     72       0.4489      1.00000
     73       0.5495      1.00000
     74       0.5563      1.00000
     75       0.6404      1.00000
     76       0.6995      1.00000
     77       0.8218      1.00000
     78       0.8965      1.00000
     79       1.0547      1.00000
     80       1.0935      1.00000
     81       4.2086      0.00000
     82       4.2449      0.00000
     83       4.4489      0.00000
     84       4.4895      0.00000
     85       4.7859      0.00000
     86       4.8192      0.00000
     87       4.9053      0.00000
     88       4.9261      0.00000
     89       5.0264      0.00000
     90       5.0741      0.00000
     91       5.2399      0.00000
     92       5.2607      0.00000
     93       6.2615      0.00000
     94       6.2995      0.00000
     95       6.5645      0.00000
     96       6.5817      0.00000
     97       6.8661      0.00000
     98       6.9418      0.00000
     99       7.4867      0.00000
    100       7.6209      0.00000
    101       9.1173      0.00000
    102       9.6864      0.00000
    103      10.2832      0.00000
    104      10.4309      0.00000
    105      10.6461      0.00000
    106      10.7701      0.00000
    107      10.9416      0.00000
    108      11.0175      0.00000
    109      11.2202      0.00000
    110      11.3098      0.00000
    111      11.4022      0.00000
    112      11.4746      0.00000
    113      11.6170      0.00000
    114      11.8386      0.00000
    115      12.0209      0.00000
    116      12.0890      0.00000

 k-point    12 :       0.5000    0.3333    0.3333
  band No.  band energies     occupation 
      1     -19.0248      1.00000
      2     -19.0248      1.00000
      3     -18.9808      1.00000
      4     -18.9808      1.00000
      5     -16.7299      1.00000
      6     -16.7299      1.00000
      7     -16.7179      1.00000
      8     -16.7179      1.00000
      9     -16.5094      1.00000
     10     -16.5094      1.00000
     11     -16.4852      1.00000
     12     -16.4852      1.00000
     13     -16.4579      1.00000
     14     -16.4578      1.00000
     15     -16.4344      1.00000
     16     -16.4344      1.00000
     17     -14.6133      1.00000
     18     -14.6133      1.00000
     19     -14.3846      1.00000
     20     -14.3846      1.00000
     21      -6.5325      1.00000
     22      -6.5325      1.00000
     23      -6.4059      1.00000
     24      -6.4059      1.00000
     25      -4.5657      1.00000
     26      -4.5657      1.00000
     27      -4.3987      1.00000
     28      -4.3987      1.00000
     29      -4.1214      1.00000
     30      -4.1214      1.00000
     31      -4.0979      1.00000
     32      -4.0979      1.00000
     33      -3.8474      1.00000
     34      -3.8474      1.00000
     35      -3.7450      1.00000
     36      -3.7450      1.00000
     37      -2.2927      1.00000
     38      -2.2927      1.00000
     39      -2.2301      1.00000
     40      -2.2301      1.00000
     41      -2.0574      1.00000
     42      -2.0574      1.00000
     43      -1.9208      1.00000
     44      -1.9208      1.00000
     45      -1.8337      1.00000
     46      -1.8337      1.00000
     47      -1.6519      1.00000
     48      -1.6519      1.00000
     49      -1.5275      1.00000
     50      -1.5275      1.00000
     51      -1.3583      1.00000
     52      -1.3583      1.00000
     53      -1.2529      1.00000
     54      -1.2529      1.00000
     55      -1.0162      1.00000
     56      -1.0162      1.00000
     57      -0.7239      1.00000
     58      -0.7239      1.00000
     59      -0.6103      1.00000
     60      -0.6103      1.00000
     61      -0.2091      1.00000
     62      -0.2091      1.00000
     63      -0.0606      1.00000
     64      -0.0606      1.00000
     65       0.1318      1.00000
     66       0.1318      1.00000
     67       0.2186      1.00000
     68       0.2186      1.00000
     69       0.3100      1.00000
     70       0.3100      1.00000
     71       0.3571      1.00000
     72       0.3571      1.00000
     73       0.5172      1.00000
     74       0.5172      1.00000
     75       0.6401      1.00000
     76       0.6401      1.00000
     77       0.8240      1.00000
     78       0.8240      1.00000
     79       0.9444      1.00000
     80       0.9444      1.00000
     81       4.2993      0.00000
     82       4.2993      0.00000
     83       4.3330      0.00000
     84       4.3330      0.00000
     85       4.6902      0.00000
     86       4.6902      0.00000
     87       4.9191      0.00000
     88       4.9191      0.00000
     89       5.0462      0.00000
     90       5.0462      0.00000
     91       5.1859      0.00000
     92       5.1859      0.00000
     93       6.6086      0.00000
     94       6.6086      0.00000
     95       6.6922      0.00000
     96       6.6922      0.00000
     97       7.0926      0.00000
     98       7.0926      0.00000
     99       7.7219      0.00000
    100       7.7219      0.00000
    101       9.7381      0.00000
    102       9.7381      0.00000
    103      10.1145      0.00000
    104      10.1145      0.00000
    105      10.6525      0.00000
    106      10.6525      0.00000
    107      10.9126      0.00000
    108      10.9126      0.00000
    109      11.3442      0.00000
    110      11.3442      0.00000
    111      11.4420      0.00000
    112      11.4420      0.00000
    113      11.9622      0.00000
    114      11.9624      0.00000
    115      12.1127      0.00000
    116      12.1149      0.00000
 Fermi energy:         1.4912977679

 spin component 2

 k-point     1 :       0.0000    0.0000    0.0000
  band No.  band energies     occupation 
      1     -19.2070      1.00000
      2     -19.0083      1.00000
      3     -18.9896      1.00000
      4     -18.9567      1.00000
      5     -16.7200      1.00000
      6     -16.6983      1.00000
      7     -16.6228      1.00000
      8     -16.5454      1.00000
      9     -16.5239      1.00000
     10     -16.4949      1.00000
     11     -16.4782      1.00000
     12     -16.4665      1.00000
     13     -16.4566      1.00000
     14     -16.4506      1.00000
     15     -16.4375      1.00000
     16     -16.4259      1.00000
     17     -14.7436      1.00000
     18     -14.7416      1.00000
     19     -14.2798      1.00000
     20     -14.2453      1.00000
     21      -6.9964      1.00000
     22      -6.7345      1.00000
     23      -6.5993      1.00000
     24      -6.2884      1.00000
     25      -4.7632      1.00000
     26      -4.6905      1.00000
     27      -4.6110      1.00000
     28      -4.4699      1.00000
     29      -4.4421      1.00000
     30      -4.1750      1.00000
     31      -4.1605      1.00000
     32      -4.0213      1.00000
     33      -3.9096      1.00000
     34      -3.9011      1.00000
     35      -3.7605      1.00000
     36      -3.6834      1.00000
     37      -2.4579      1.00000
     38      -2.3933      1.00000
     39      -2.3758      1.00000
     40      -2.2484      1.00000
     41      -2.2329      1.00000
     42      -2.1325      1.00000
     43      -1.9667      1.00000
     44      -1.8617      1.00000
     45      -1.7528      1.00000
     46      -1.6609      1.00000
     47      -1.6371      1.00000
     48      -1.4432      1.00000
     49      -1.3307      1.00000
     50      -1.1741      1.00000
     51      -1.1596      1.00000
     52      -1.1228      1.00000
     53      -1.1159      1.00000
     54      -1.0734      1.00000
     55      -0.7260      1.00000
     56      -0.7104      1.00000
     57      -0.5305      1.00000
     58      -0.4452      1.00000
     59      -0.3855      1.00000
     60      -0.2786      1.00000
     61      -0.2350      1.00000
     62      -0.1759      1.00000
     63      -0.1658      1.00000
     64      -0.1571      1.00000
     65       0.1338      1.00000
     66       0.1831      1.00000
     67       0.2145      1.00000
     68       0.2188      1.00000
     69       0.3237      1.00000
     70       0.3353      1.00000
     71       0.3933      1.00000
     72       0.4107      1.00000
     73       0.5158      1.00000
     74       0.6118      1.00000
     75       0.7712      1.00000
     76       0.7827      1.00000
     77       0.8385      1.00000
     78       0.8988      1.00000
     79       1.0360      1.00000
     80       1.1770      1.00000
     81       4.1421      0.00000
     82       4.2758      0.00000
     83       4.4100      0.00000
     84       4.5947      0.00000
     85       4.7073      0.00000
     86       4.7514      0.00000
     87       4.7601      0.00000
     88       4.8090      0.00000
     89       4.8929      0.00000
     90       4.9506      0.00000
     91       5.5276      0.00000
     92       5.5541      0.00000
     93       5.7058      0.00000
     94       5.9382      0.00000
     95       6.2580      0.00000
     96       6.4681      0.00000
     97       6.6154      0.00000
     98       6.7271      0.00000
     99       7.6534      0.00000
    100       7.9884      0.00000
    101       7.9936      0.00000
    102      10.2642      0.00000
    103      10.2839      0.00000
    104      10.5000      0.00000
    105      10.6569      0.00000
    106      10.6669      0.00000
    107      10.8938      0.00000
    108      10.9941      0.00000
    109      11.0153      0.00000
    110      11.3512      0.00000
    111      11.4861      0.00000
    112      11.5613      0.00000
    113      11.7792      0.00000
    114      11.8039      0.00000
    115      11.9768      0.00000
    116      12.2255      0.00000

 k-point     2 :       0.2500    0.0000    0.0000
  band No.  band energies     occupation 
      1     -19.1624      1.00000
      2     -19.0185      1.00000
      3     -18.9654      1.00000
      4     -18.9416      1.00000
      5     -16.7392      1.00000
      6     -16.7130      1.00000
      7     -16.6724      1.00000
      8     -16.5538      1.00000
      9     -16.5376      1.00000
     10     -16.5242      1.00000
     11     -16.4879      1.00000
     12     -16.4686      1.00000
     13     -16.4666      1.00000
     14     -16.4582      1.00000
     15     -16.4452      1.00000
     16     -16.4223      1.00000
     17     -14.7370      1.00000
     18     -14.7346      1.00000
     19     -14.2748      1.00000
     20     -14.2506      1.00000
     21      -6.8584      1.00000
     22      -6.5731      1.00000
     23      -6.5636      1.00000
     24      -6.2029      1.00000
     25      -4.7056      1.00000
     26      -4.6869      1.00000
     27      -4.6636      1.00000
     28      -4.3675      1.00000
     29      -4.3250      1.00000
     30      -4.2408      1.00000
     31      -4.1966      1.00000
     32      -3.9807      1.00000
     33      -3.9077      1.00000
     34      -3.8210      1.00000
     35      -3.6399      1.00000
     36      -3.6054      1.00000
     37      -2.4283      1.00000
     38      -2.4205      1.00000
     39      -2.4145      1.00000
     40      -2.2448      1.00000
     41      -2.1977      1.00000
     42      -2.1149      1.00000
     43      -2.0197      1.00000
     44      -1.9269      1.00000
     45      -1.7891      1.00000
     46      -1.6988      1.00000
     47      -1.6966      1.00000
     48      -1.4636      1.00000
     49      -1.4630      1.00000
     50      -1.3328      1.00000
     51      -1.3002      1.00000
     52      -1.2004      1.00000
     53      -1.1935      1.00000
     54      -0.7648      1.00000
     55      -0.7627      1.00000
     56      -0.7353      1.00000
     57      -0.6342      1.00000
     58      -0.5264      1.00000
     59      -0.3778      1.00000
     60      -0.2902      1.00000
     61      -0.2838      1.00000
     62      -0.2131      1.00000
     63      -0.1724      1.00000
     64      -0.0962      1.00000
     65      -0.0327      1.00000
     66       0.0310      1.00000
     67       0.1673      1.00000
     68       0.2013      1.00000
     69       0.2812      1.00000
     70       0.3149      1.00000
     71       0.3548      1.00000
     72       0.3553      1.00000
     73       0.4956      1.00000
     74       0.5949      1.00000
     75       0.7093      1.00000
     76       0.7952      1.00000
     77       0.8171      1.00000
     78       0.9120      1.00000
     79       0.9953      1.00000
     80       1.0539      1.00000
     81       4.1595      0.00000
     82       4.2756      0.00000
     83       4.3259      0.00000
     84       4.4863      0.00000
     85       4.6027      0.00000
     86       4.7428      0.00000
     87       4.7769      0.00000
     88       4.8018      0.00000
     89       4.8119      0.00000
     90       4.9398      0.00000
     91       5.4495      0.00000
     92       5.4839      0.00000
     93       6.1252      0.00000
     94       6.3024      0.00000
     95       6.5432      0.00000
     96       6.5572      0.00000
     97       6.7759      0.00000
     98       6.8087      0.00000
     99       7.8496      0.00000
    100       8.0670      0.00000
    101       8.3339      0.00000
    102      10.1963      0.00000
    103      10.2819      0.00000
    104      10.3483      0.00000
    105      10.6695      0.00000
    106      10.7930      0.00000
    107      10.9796      0.00000
    108      11.0711      0.00000
    109      11.1138      0.00000
    110      11.2982      0.00000
    111      11.4307      0.00000
    112      11.5629      0.00000
    113      11.8679      0.00000
    114      11.9144      0.00000
    115      11.9554      0.00000
    116      12.0412      0.00000

 k-point     3 :       0.5000    0.0000    0.0000
  band No.  band energies     occupation 
      1     -19.0731      1.00000
      2     -19.0731      1.00000
      3     -18.9333      1.00000
      4     -18.9333      1.00000
      5     -16.7268      1.00000
      6     -16.7268      1.00000
      7     -16.6969      1.00000
      8     -16.6969      1.00000
      9     -16.5239      1.00000
     10     -16.5239      1.00000
     11     -16.4741      1.00000
     12     -16.4741      1.00000
     13     -16.4713      1.00000
     14     -16.4713      1.00000
     15     -16.4356      1.00000
     16     -16.4356      1.00000
     17     -14.7293      1.00000
     18     -14.7293      1.00000
     19     -14.2629      1.00000
     20     -14.2628      1.00000
     21      -6.6362      1.00000
     22      -6.6362      1.00000
     23      -6.2586      1.00000
     24      -6.2586      1.00000
     25      -4.7275      1.00000
     26      -4.7275      1.00000
     27      -4.4292      1.00000
     28      -4.4292      1.00000
     29      -4.2023      1.00000
     30      -4.2023      1.00000
     31      -4.0789      1.00000
     32      -4.0789      1.00000
     33      -3.6947      1.00000
     34      -3.6947      1.00000
     35      -3.6817      1.00000
     36      -3.6817      1.00000
     37      -2.4213      1.00000
     38      -2.4213      1.00000
     39      -2.3654      1.00000
     40      -2.3654      1.00000
     41      -2.1860      1.00000
     42      -2.1860      1.00000
     43      -2.0025      1.00000
     44      -2.0025      1.00000
     45      -1.6951      1.00000
     46      -1.6951      1.00000
     47      -1.6401      1.00000
     48      -1.6401      1.00000
     49      -1.5551      1.00000
     50      -1.5551      1.00000
     51      -1.4536      1.00000
     52      -1.4536      1.00000
     53      -0.8317      1.00000
     54      -0.8317      1.00000
     55      -0.8172      1.00000
     56      -0.8172      1.00000
     57      -0.7354      1.00000
     58      -0.7354      1.00000
     59      -0.3352      1.00000
     60      -0.3352      1.00000
     61      -0.2844      1.00000
     62      -0.2844      1.00000
     63      -0.2093      1.00000
     64      -0.2093      1.00000
     65       0.0710      1.00000
     66       0.0710      1.00000
     67       0.0863      1.00000
     68       0.0863      1.00000
     69       0.2779      1.00000
     70       0.2779      1.00000
     71       0.3277      1.00000
     72       0.3277      1.00000
     73       0.5469      1.00000
     74       0.5469      1.00000
     75       0.7850      1.00000
     76       0.7850      1.00000
     77       0.8887      1.00000
     78       0.8887      1.00000
     79       0.9038      1.00000
     80       0.9038      1.00000
     81       4.2608      0.00000
     82       4.2608      0.00000
     83       4.2790      0.00000
     84       4.2790      0.00000
     85       4.5603      0.00000
     86       4.5603      0.00000
     87       4.8023      0.00000
     88       4.8023      0.00000
     89       4.8870      0.00000
     90       4.8870      0.00000
     91       5.4096      0.00000
     92       5.4096      0.00000
     93       6.5295      0.00000
     94       6.5295      0.00000
     95       6.6890      0.00000
     96       6.6891      0.00000
     97       6.9404      0.00000
     98       6.9404      0.00000
     99       8.1429      0.00000
    100       8.1429      0.00000
    101       9.2432      0.00000
    102       9.2432      0.00000
    103      10.3375      0.00000
    104      10.3375      0.00000
    105      10.8515      0.00000
    106      10.8515      0.00000
    107      11.1183      0.00000
    108      11.1183      0.00000
    109      11.1799      0.00000
    110      11.1799      0.00000
    111      11.5600      0.00000
    112      11.5600      0.00000
    113      11.7993      0.00000
    114      11.7993      0.00000
    115      12.1644      0.00000
    116      12.1656      0.00000

 k-point     4 :       0.0000    0.3333    0.0000
  band No.  band energies     occupation 
      1     -19.1595      1.00000
      2     -19.0598      1.00000
      3     -18.9803      1.00000
      4     -18.9634      1.00000
      5     -16.7322      1.00000
      6     -16.6590      1.00000
      7     -16.6136      1.00000
      8     -16.5633      1.00000
      9     -16.5288      1.00000
     10     -16.4944      1.00000
     11     -16.4904      1.00000
     12     -16.4768      1.00000
     13     -16.4473      1.00000
     14     -16.4447      1.00000
     15     -16.4429      1.00000
     16     -16.4376      1.00000
     17     -14.7368      1.00000
     18     -14.7352      1.00000
     19     -14.2720      1.00000
     20     -14.2546      1.00000
     21      -6.8978      1.00000
     22      -6.6617      1.00000
     23      -6.6325      1.00000
     24      -6.4518      1.00000
     25      -4.7003      1.00000
     26      -4.6567      1.00000
     27      -4.4684      1.00000
     28      -4.3720      1.00000
     29      -4.3406      1.00000
     30      -4.2370      1.00000
     31      -4.1911      1.00000
     32      -4.0570      1.00000
     33      -4.0047      1.00000
     34      -3.9598      1.00000
     35      -3.9449      1.00000
     36      -3.8209      1.00000
     37      -2.5093      1.00000
     38      -2.3678      1.00000
     39      -2.3246      1.00000
     40      -2.2770      1.00000
     41      -2.2406      1.00000
     42      -2.2267      1.00000
     43      -1.8417      1.00000
     44      -1.7374      1.00000
     45      -1.7000      1.00000
     46      -1.5129      1.00000
     47      -1.5036      1.00000
     48      -1.3696      1.00000
     49      -1.3676      1.00000
     50      -1.3536      1.00000
     51      -1.1503      1.00000
     52      -1.1285      1.00000
     53      -1.0786      1.00000
     54      -0.8864      1.00000
     55      -0.8390      1.00000
     56      -0.6646      1.00000
     57      -0.6242      1.00000
     58      -0.5426      1.00000
     59      -0.4617      1.00000
     60      -0.4245      1.00000
     61      -0.1972      1.00000
     62      -0.1682      1.00000
     63      -0.0775      1.00000
     64       0.0259      1.00000
     65       0.0283      1.00000
     66       0.1457      1.00000
     67       0.1490      1.00000
     68       0.2653      1.00000
     69       0.2963      1.00000
     70       0.3182      1.00000
     71       0.3481      1.00000
     72       0.4060      1.00000
     73       0.5039      1.00000
     74       0.5071      1.00000
     75       0.5970      1.00000
     76       0.7387      1.00000
     77       0.8997      1.00000
     78       0.9048      1.00000
     79       1.2267      1.00000
     80       1.2472      1.00000
     81       4.1658      0.00000
     82       4.2421      0.00000
     83       4.4861      0.00000
     84       4.5823      0.00000
     85       4.7476      0.00000
     86       4.7660      0.00000
     87       4.7858      0.00000
     88       4.7905      0.00000
     89       4.8452      0.00000
     90       4.8854      0.00000
     91       5.5384      0.00000
     92       5.5521      0.00000
     93       5.8461      0.00000
     94       5.9534      0.00000
     95       6.2733      0.00000
     96       6.3951      0.00000
     97       6.6341      0.00000
     98       6.6886      0.00000
     99       7.7385      0.00000
    100       7.9090      0.00000
    101       8.4323      0.00000
    102       9.4914      0.00000
    103      10.4975      0.00000
    104      10.6425      0.00000
    105      10.6647      0.00000
    106      10.7179      0.00000
    107      10.7777      0.00000
    108      10.9555      0.00000
    109      11.2789      0.00000
    110      11.3041      0.00000
    111      11.3453      0.00000
    112      11.4184      0.00000
    113      11.5648      0.00000
    114      11.8497      0.00000
    115      11.9511      0.00000
    116      12.0601      0.00000

 k-point     5 :       0.2500    0.3333    0.0000
  band No.  band energies     occupation 
      1     -19.1197      1.00000
      2     -19.0368      1.00000
      3     -18.9774      1.00000
      4     -18.9543      1.00000
      5     -16.7488      1.00000
      6     -16.6967      1.00000
      7     -16.6569      1.00000
      8     -16.6109      1.00000
      9     -16.5217      1.00000
     10     -16.5051      1.00000
     11     -16.4946      1.00000
     12     -16.4842      1.00000
     13     -16.4589      1.00000
     14     -16.4543      1.00000
     15     -16.4367      1.00000
     16     -16.4307      1.00000
     17     -14.7299      1.00000
     18     -14.7282      1.00000
     19     -14.2699      1.00000
     20     -14.2577      1.00000
     21      -6.7687      1.00000
     22      -6.5932      1.00000
     23      -6.5040      1.00000
     24      -6.3641      1.00000
     25      -4.6798      1.00000
     26      -4.6614      1.00000
     27      -4.4485      1.00000
     28      -4.2960      1.00000
     29      -4.2757      1.00000
     30      -4.2135      1.00000
     31      -4.1680      1.00000
     32      -4.0574      1.00000
     33      -4.0128      1.00000
     34      -3.8638      1.00000
     35      -3.8432      1.00000
     36      -3.7586      1.00000
     37      -2.4783      1.00000
     38      -2.4044      1.00000
     39      -2.2947      1.00000
     40      -2.2933      1.00000
     41      -2.1557      1.00000
     42      -2.1176      1.00000
     43      -1.9360      1.00000
     44      -1.9260      1.00000
     45      -1.8136      1.00000
     46      -1.7060      1.00000
     47      -1.6397      1.00000
     48      -1.5302      1.00000
     49      -1.3946      1.00000
     50      -1.3150      1.00000
     51      -1.2272      1.00000
     52      -1.2177      1.00000
     53      -1.0962      1.00000
     54      -0.9083      1.00000
     55      -0.8262      1.00000
     56      -0.7087      1.00000
     57      -0.7077      1.00000
     58      -0.6544      1.00000
     59      -0.2710      1.00000
     60      -0.2456      1.00000
     61      -0.1831      1.00000
     62      -0.1767      1.00000
     63      -0.1236      1.00000
     64      -0.1222      1.00000
     65       0.0299      1.00000
     66       0.0622      1.00000
     67       0.1334      1.00000
     68       0.1371      1.00000
     69       0.2453      1.00000
     70       0.2618      1.00000
     71       0.2960      1.00000
     72       0.3199      1.00000
     73       0.4102      1.00000
     74       0.5354      1.00000
     75       0.6700      1.00000
     76       0.7519      1.00000
     77       0.8817      1.00000
     78       0.9323      1.00000
     79       1.1133      1.00000
     80       1.1284      1.00000
     81       4.1775      0.00000
     82       4.2449      0.00000
     83       4.3871      0.00000
     84       4.4736      0.00000
     85       4.6165      0.00000
     86       4.7013      0.00000
     87       4.7861      0.00000
     88       4.8074      0.00000
     89       4.8215      0.00000
     90       4.8920      0.00000
     91       5.4642      0.00000
     92       5.4824      0.00000
     93       6.2379      0.00000
     94       6.3170      0.00000
     95       6.5523      0.00000
     96       6.5759      0.00000
     97       6.7533      0.00000
     98       6.7711      0.00000
     99       7.8964      0.00000
    100       8.0057      0.00000
    101       8.7127      0.00000
    102       9.6179      0.00000
    103      10.3450      0.00000
    104      10.4093      0.00000
    105      10.6118      0.00000
    106      10.7615      0.00000
    107      10.9879      0.00000
    108      11.0566      0.00000
    109      11.1745      0.00000
    110      11.2756      0.00000
    111      11.3961      0.00000
    112      11.4468      0.00000
    113      11.7691      0.00000
    114      11.7818      0.00000
    115      11.9197      0.00000
    116      12.0876      0.00000

 k-point     6 :       0.5000    0.3333    0.0000
  band No.  band energies     occupation 
      1     -19.0468      1.00000
      2     -19.0468      1.00000
      3     -18.9589      1.00000
      4     -18.9589      1.00000
      5     -16.7242      1.00000
      6     -16.7242      1.00000
      7     -16.7143      1.00000
      8     -16.7143      1.00000
      9     -16.5143      1.00000
     10     -16.5143      1.00000
     11     -16.4816      1.00000
     12     -16.4816      1.00000
     13     -16.4651      1.00000
     14     -16.4651      1.00000
     15     -16.4347      1.00000
     16     -16.4347      1.00000
     17     -14.7224      1.00000
     18     -14.7224      1.00000
     19     -14.2643      1.00000
     20     -14.2643      1.00000
     21      -6.5847      1.00000
     22      -6.5847      1.00000
     23      -6.3251      1.00000
     24      -6.3251      1.00000
     25      -4.6645      1.00000
     26      -4.6645      1.00000
     27      -4.3263      1.00000
     28      -4.3263      1.00000
     29      -4.1448      1.00000
     30      -4.1448      1.00000
     31      -4.0953      1.00000
     32      -4.0953      1.00000
     33      -3.8547      1.00000
     34      -3.8547      1.00000
     35      -3.7715      1.00000
     36      -3.7715      1.00000
     37      -2.3789      1.00000
     38      -2.3789      1.00000
     39      -2.2916      1.00000
     40      -2.2916      1.00000
     41      -2.1947      1.00000
     42      -2.1947      1.00000
     43      -2.0071      1.00000
     44      -2.0071      1.00000
     45      -1.8623      1.00000
     46      -1.8623      1.00000
     47      -1.7283      1.00000
     48      -1.7283      1.00000
     49      -1.4408      1.00000
     50      -1.4408      1.00000
     51      -1.3048      1.00000
     52      -1.3048      1.00000
     53      -0.9966      1.00000
     54      -0.9966      1.00000
     55      -0.8901      1.00000
     56      -0.8901      1.00000
     57      -0.7066      1.00000
     58      -0.7066      1.00000
     59      -0.3518      1.00000
     60      -0.3518      1.00000
     61      -0.1429      1.00000
     62      -0.1429      1.00000
     63      -0.1322      1.00000
     64      -0.1322      1.00000
     65       0.0288      1.00000
     66       0.0288      1.00000
     67       0.1759      1.00000
     68       0.1759      1.00000
     69       0.2672      1.00000
     70       0.2672      1.00000
     71       0.3343      1.00000
     72       0.3343      1.00000
     73       0.4157      1.00000
     74       0.4157      1.00000
     75       0.7548      1.00000
     76       0.7548      1.00000
     77       0.8138      1.00000
     78       0.8138      1.00000
     79       1.0574      1.00000
     80       1.0574      1.00000
     81       4.2697      0.00000
     82       4.2697      0.00000
     83       4.2847      0.00000
     84       4.2847      0.00000
     85       4.5390      0.00000
     86       4.5390      0.00000
     87       4.8033      0.00000
     88       4.8033      0.00000
     89       4.8719      0.00000
     90       4.8719      0.00000
     91       5.4199      0.00000
     92       5.4199      0.00000
     93       6.5655      0.00000
     94       6.5655      0.00000
     95       6.7093      0.00000
     96       6.7093      0.00000
     97       6.9474      0.00000
     98       6.9475      0.00000
     99       8.1306      0.00000
    100       8.1306      0.00000
    101       9.4331      0.00000
    102       9.4331      0.00000
    103      10.1061      0.00000
    104      10.1061      0.00000
    105      10.6229      0.00000
    106      10.6229      0.00000
    107      11.1930      0.00000
    108      11.1930      0.00000
    109      11.3225      0.00000
    110      11.3225      0.00000
    111      11.4079      0.00000
    112      11.4079      0.00000
    113      11.7162      0.00000
    114      11.7162      0.00000
    115      12.0686      0.00000
    116      12.0687      0.00000

 k-point     7 :       0.0000    0.0000    0.3333
  band No.  band energies     occupation 
      1     -19.1631      1.00000
      2     -19.0625      1.00000
      3     -18.9871      1.00000
      4     -18.9534      1.00000
      5     -16.7105      1.00000
      6     -16.6997      1.00000
      7     -16.5809      1.00000
      8     -16.5281      1.00000
      9     -16.5083      1.00000
     10     -16.5039      1.00000
     11     -16.4843      1.00000
     12     -16.4776      1.00000
     13     -16.4624      1.00000
     14     -16.4618      1.00000
     15     -16.4588      1.00000
     16     -16.4441      1.00000
     17     -14.6361      1.00000
     18     -14.6191      1.00000
     19     -14.4051      1.00000
     20     -14.3712      1.00000
     21      -6.9420      1.00000
     22      -6.8148      1.00000
     23      -6.5168      1.00000
     24      -6.3590      1.00000
     25      -4.7080      1.00000
     26      -4.6713      1.00000
     27      -4.4373      1.00000
     28      -4.4076      1.00000
     29      -4.3575      1.00000
     30      -4.2586      1.00000
     31      -4.2182      1.00000
     32      -4.0985      1.00000
     33      -4.0819      1.00000
     34      -4.0437      1.00000
     35      -3.7193      1.00000
     36      -3.6860      1.00000
     37      -2.2788      1.00000
     38      -2.2765      1.00000
     39      -2.2040      1.00000
     40      -2.0672      1.00000
     41      -2.0532      1.00000
     42      -2.0306      1.00000
     43      -2.0065      1.00000
     44      -1.9037      1.00000
     45      -1.7080      1.00000
     46      -1.6622      1.00000
     47      -1.5543      1.00000
     48      -1.4115      1.00000
     49      -1.3624      1.00000
     50      -1.2949      1.00000
     51      -1.1488      1.00000
     52      -1.1328      1.00000
     53      -1.0202      1.00000
     54      -1.0137      1.00000
     55      -1.0024      1.00000
     56      -0.7466      1.00000
     57      -0.7274      1.00000
     58      -0.7148      1.00000
     59      -0.5953      1.00000
     60      -0.4046      1.00000
     61      -0.3438      1.00000
     62      -0.1606      1.00000
     63      -0.1036      1.00000
     64       0.0082      1.00000
     65       0.0149      1.00000
     66       0.0337      1.00000
     67       0.1006      1.00000
     68       0.1467      1.00000
     69       0.2416      1.00000
     70       0.2915      1.00000
     71       0.4731      1.00000
     72       0.5406      1.00000
     73       0.5710      1.00000
     74       0.6794      1.00000
     75       0.7491      1.00000
     76       0.8249      1.00000
     77       0.8519      1.00000
     78       0.8751      1.00000
     79       1.0011      1.00000
     80       1.1822      1.00000
     81       4.1673      0.00000
     82       4.2245      0.00000
     83       4.5443      0.00000
     84       4.6024      0.00000
     85       4.8635      0.00000
     86       4.9125      0.00000
     87       4.9516      0.00000
     88       4.9733      0.00000
     89       4.9989      0.00000
     90       5.1268      0.00000
     91       5.3010      0.00000
     92       5.3548      0.00000
     93       5.7645      0.00000
     94       5.8742      0.00000
     95       6.3238      0.00000
     96       6.4147      0.00000
     97       6.6336      0.00000
     98       6.9636      0.00000
     99       7.2244      0.00000
    100       7.6498      0.00000
    101       8.5060      0.00000
    102       9.5359      0.00000
    103      10.5571      0.00000
    104      10.6271      0.00000
    105      10.6729      0.00000
    106      10.6737      0.00000
    107      11.0795      0.00000
    108      11.1062      0.00000
    109      11.2746      0.00000
    110      11.2756      0.00000
    111      11.3704      0.00000
    112      11.4392      0.00000
    113      11.6950      0.00000
    114      11.7240      0.00000
    115      12.0869      0.00000
    116      12.2370      0.00000

 k-point     8 :       0.2500    0.0000    0.3333
  band No.  band energies     occupation 
      1     -19.1211      1.00000
      2     -19.0285      1.00000
      3     -18.9937      1.00000
      4     -18.9494      1.00000
      5     -16.7284      1.00000
      6     -16.7162      1.00000
      7     -16.6283      1.00000
      8     -16.5658      1.00000
      9     -16.5322      1.00000
     10     -16.5079      1.00000
     11     -16.5032      1.00000
     12     -16.4834      1.00000
     13     -16.4704      1.00000
     14     -16.4669      1.00000
     15     -16.4468      1.00000
     16     -16.4380      1.00000
     17     -14.6289      1.00000
     18     -14.6165      1.00000
     19     -14.3986      1.00000
     20     -14.3748      1.00000
     21      -6.7952      1.00000
     22      -6.6514      1.00000
     23      -6.4831      1.00000
     24      -6.2979      1.00000
     25      -4.6642      1.00000
     26      -4.6307      1.00000
     27      -4.5039      1.00000
     28      -4.3139      1.00000
     29      -4.2930      1.00000
     30      -4.2610      1.00000
     31      -4.2183      1.00000
     32      -4.1106      1.00000
     33      -3.9913      1.00000
     34      -3.9900      1.00000
     35      -3.6442      1.00000
     36      -3.6266      1.00000
     37      -2.3147      1.00000
     38      -2.2715      1.00000
     39      -2.1769      1.00000
     40      -2.0980      1.00000
     41      -2.0903      1.00000
     42      -1.9663      1.00000
     43      -1.9570      1.00000
     44      -1.8366      1.00000
     45      -1.7998      1.00000
     46      -1.6804      1.00000
     47      -1.5298      1.00000
     48      -1.5133      1.00000
     49      -1.4726      1.00000
     50      -1.4252      1.00000
     51      -1.2830      1.00000
     52      -1.2383      1.00000
     53      -1.1338      1.00000
     54      -1.0774      1.00000
     55      -1.0575      1.00000
     56      -0.9298      1.00000
     57      -0.7113      1.00000
     58      -0.6792      1.00000
     59      -0.5444      1.00000
     60      -0.3526      1.00000
     61      -0.3518      1.00000
     62      -0.1819      1.00000
     63      -0.1557      1.00000
     64      -0.0882      1.00000
     65      -0.0531      1.00000
     66      -0.0003      1.00000
     67       0.1002      1.00000
     68       0.1082      1.00000
     69       0.3147      1.00000
     70       0.3583      1.00000
     71       0.4612      1.00000
     72       0.5162      1.00000
     73       0.5228      1.00000
     74       0.5551      1.00000
     75       0.6493      1.00000
     76       0.7115      1.00000
     77       0.8590      1.00000
     78       0.8704      1.00000
     79       0.9468      1.00000
     80       1.0627      1.00000
     81       4.1875      0.00000
     82       4.2409      0.00000
     83       4.4582      0.00000
     84       4.4986      0.00000
     85       4.7806      0.00000
     86       4.8588      0.00000
     87       4.8910      0.00000
     88       4.9479      0.00000
     89       5.0232      0.00000
     90       5.1227      0.00000
     91       5.2128      0.00000
     92       5.2528      0.00000
     93       6.1748      0.00000
     94       6.2596      0.00000
     95       6.5609      0.00000
     96       6.5761      0.00000
     97       6.8584      0.00000
     98       6.9977      0.00000
     99       7.4254      0.00000
    100       7.6975      0.00000
    101       8.7948      0.00000
    102       9.7312      0.00000
    103      10.3560      0.00000
    104      10.5287      0.00000
    105      10.7168      0.00000
    106      10.8136      0.00000
    107      10.9477      0.00000
    108      11.1189      0.00000
    109      11.2901      0.00000
    110      11.3140      0.00000
    111      11.3788      0.00000
    112      11.3867      0.00000
    113      11.7031      0.00000
    114      11.8658      0.00000
    115      12.1070      0.00000
    116      12.1758      0.00000

 k-point     9 :       0.5000    0.0000    0.3333
  band No.  band energies     occupation 
      1     -19.0394      1.00000
      2     -19.0394      1.00000
      3     -18.9696      1.00000
      4     -18.9696      1.00000
      5     -16.7083      1.00000
      6     -16.7083      1.00000
      7     -16.6941      1.00000
      8     -16.6941      1.00000
      9     -16.5224      1.00000
     10     -16.5224      1.00000
     11     -16.4953      1.00000
     12     -16.4953      1.00000
     13     -16.4617      1.00000
     14     -16.4617      1.00000
     15     -16.4455      1.00000
     16     -16.4455      1.00000
     17     -14.6180      1.00000
     18     -14.6180      1.00000
     19     -14.3853      1.00000
     20     -14.3853      1.00000
     21      -6.5519      1.00000
     22      -6.5519      1.00000
     23      -6.3662      1.00000
     24      -6.3662      1.00000
     25      -4.6033      1.00000
     26      -4.6033      1.00000
     27      -4.4426      1.00000
     28      -4.4426      1.00000
     29      -4.1830      1.00000
     30      -4.1830      1.00000
     31      -4.1179      1.00000
     32      -4.1179      1.00000
     33      -3.7681      1.00000
     34      -3.7681      1.00000
     35      -3.7521      1.00000
     36      -3.7521      1.00000
     37      -2.2665      1.00000
     38      -2.2665      1.00000
     39      -2.2194      1.00000
     40      -2.2194      1.00000
     41      -2.0424      1.00000
     42      -2.0424      1.00000
     43      -1.8398      1.00000
     44      -1.8398      1.00000
     45      -1.8219      1.00000
     46      -1.8219      1.00000
     47      -1.6096      1.00000
     48      -1.6096      1.00000
     49      -1.4750      1.00000
     50      -1.4750      1.00000
     51      -1.3036      1.00000
     52      -1.3036      1.00000
     53      -1.1592      1.00000
     54      -1.1592      1.00000
     55      -0.9878      1.00000
     56      -0.9878      1.00000
     57      -0.9620      1.00000
     58      -0.9620      1.00000
     59      -0.5670      1.00000
     60      -0.5670      1.00000
     61      -0.3103      1.00000
     62      -0.3103      1.00000
     63      -0.1281      1.00000
     64      -0.1281      1.00000
     65       0.0880      1.00000
     66       0.0880      1.00000
     67       0.2060      1.00000
     68       0.2060      1.00000
     69       0.3011      1.00000
     70       0.3011      1.00000
     71       0.3490      1.00000
     72       0.3490      1.00000
     73       0.6125      1.00000
     74       0.6125      1.00000
     75       0.7371      1.00000
     76       0.7371      1.00000
     77       0.7566      1.00000
     78       0.7566      1.00000
     79       0.8919      1.00000
     80       0.8919      1.00000
     81       4.3039      0.00000
     82       4.3039      0.00000
     83       4.3238      0.00000
     84       4.3238      0.00000
     85       4.6987      0.00000
     86       4.6987      0.00000
     87       4.9287      0.00000
     88       4.9287      0.00000
     89       5.0893      0.00000
     90       5.0893      0.00000
     91       5.1564      0.00000
     92       5.1564      0.00000
     93       6.5714      0.00000
     94       6.5714      0.00000
     95       6.6681      0.00000
     96       6.6681      0.00000
     97       7.0992      0.00000
     98       7.0992      0.00000
     99       7.7362      0.00000
    100       7.7362      0.00000
    101       9.5613      0.00000
    102       9.5613      0.00000
    103      10.1698      0.00000
    104      10.1698      0.00000
    105      10.8602      0.00000
    106      10.8602      0.00000
    107      11.0071      0.00000
    108      11.0071      0.00000
    109      11.2737      0.00000
    110      11.2737      0.00000
    111      11.3958      0.00000
    112      11.3958      0.00000
    113      11.9653      0.00000
    114      11.9653      0.00000
    115      12.0558      0.00000
    116      12.0558      0.00000

 k-point    10 :       0.0000    0.3333    0.3333
  band No.  band energies     occupation 
      1     -19.1317      1.00000
      2     -19.0785      1.00000
      3     -18.9843      1.00000
      4     -18.9685      1.00000
      5     -16.7264      1.00000
      6     -16.6924      1.00000
      7     -16.6010      1.00000
      8     -16.5710      1.00000
      9     -16.5187      1.00000
     10     -16.4989      1.00000
     11     -16.4817      1.00000
     12     -16.4723      1.00000
     13     -16.4509      1.00000
     14     -16.4472      1.00000
     15     -16.4447      1.00000
     16     -16.4273      1.00000
     17     -14.6287      1.00000
     18     -14.6200      1.00000
     19     -14.3946      1.00000
     20     -14.3777      1.00000
     21      -6.8474      1.00000
     22      -6.7244      1.00000
     23      -6.6031      1.00000
     24      -6.5001      1.00000
     25      -4.6929      1.00000
     26      -4.6629      1.00000
     27      -4.4088      1.00000
     28      -4.3221      1.00000
     29      -4.2931      1.00000
     30      -4.2137      1.00000
     31      -4.1762      1.00000
     32      -4.1738      1.00000
     33      -4.0039      1.00000
     34      -3.9737      1.00000
     35      -3.9120      1.00000
     36      -3.8421      1.00000
     37      -2.3277      1.00000
     38      -2.2198      1.00000
     39      -2.1910      1.00000
     40      -2.1438      1.00000
     41      -2.1017      1.00000
     42      -2.0339      1.00000
     43      -1.8540      1.00000
     44      -1.7450      1.00000
     45      -1.7429      1.00000
     46      -1.6048      1.00000
     47      -1.5302      1.00000
     48      -1.4976      1.00000
     49      -1.3814      1.00000
     50      -1.3535      1.00000
     51      -1.3324      1.00000
     52      -1.2197      1.00000
     53      -1.1569      1.00000
     54      -0.9224      1.00000
     55      -0.8219      1.00000
     56      -0.7565      1.00000
     57      -0.7086      1.00000
     58      -0.7033      1.00000
     59      -0.4727      1.00000
     60      -0.4719      1.00000
     61      -0.3610      1.00000
     62      -0.2750      1.00000
     63      -0.1148      1.00000
     64      -0.0841      1.00000
     65       0.0059      1.00000
     66       0.0333      1.00000
     67       0.2065      1.00000
     68       0.2524      1.00000
     69       0.2536      1.00000
     70       0.3038      1.00000
     71       0.4828      1.00000
     72       0.5596      1.00000
     73       0.5769      1.00000
     74       0.6114      1.00000
     75       0.6999      1.00000
     76       0.7355      1.00000
     77       0.8491      1.00000
     78       0.8566      1.00000
     79       1.1518      1.00000
     80       1.2236      1.00000
     81       4.1931      0.00000
     82       4.2315      0.00000
     83       4.5400      0.00000
     84       4.5838      0.00000
     85       4.8633      0.00000
     86       4.9006      0.00000
     87       4.9286      0.00000
     88       4.9740      0.00000
     89       5.0087      0.00000
     90       5.0787      0.00000
     91       5.3241      0.00000
     92       5.3502      0.00000
     93       5.8728      0.00000
     94       5.9240      0.00000
     95       6.3043      0.00000
     96       6.3581      0.00000
     97       6.7169      0.00000
     98       6.8723      0.00000
     99       7.3404      0.00000
    100       7.5454      0.00000
    101       8.8743      0.00000
    102       9.5002      0.00000
    103      10.3617      0.00000
    104      10.4934      0.00000
    105      10.6879      0.00000
    106      10.7145      0.00000
    107      11.0345      0.00000
    108      11.1332      0.00000
    109      11.2810      0.00000
    110      11.3250      0.00000
    111      11.3464      0.00000
    112      11.4219      0.00000
    113      11.4447      0.00000
    114      11.7121      0.00000
    115      11.9538      0.00000
    116      12.1082      0.00000

 k-point    11 :       0.2500    0.3333    0.3333
  band No.  band energies     occupation 
      1     -19.0935      1.00000
      2     -19.0458      1.00000
      3     -18.9844      1.00000
      4     -18.9642      1.00000
      5     -16.7462      1.00000
      6     -16.7205      1.00000
      7     -16.6459      1.00000
      8     -16.6214      1.00000
      9     -16.5175      1.00000
     10     -16.5005      1.00000
     11     -16.4902      1.00000
     12     -16.4788      1.00000
     13     -16.4625      1.00000
     14     -16.4599      1.00000
     15     -16.4343      1.00000
     16     -16.4232      1.00000
     17     -14.6219      1.00000
     18     -14.6154      1.00000
     19     -14.3913      1.00000
     20     -14.3793      1.00000
     21      -6.7179      1.00000
     22      -6.5942      1.00000
     23      -6.5365      1.00000
     24      -6.4242      1.00000
     25      -4.6425      1.00000
     26      -4.6350      1.00000
     27      -4.3756      1.00000
     28      -4.3049      1.00000
     29      -4.2464      1.00000
     30      -4.2339      1.00000
     31      -4.1906      1.00000
     32      -4.0883      1.00000
     33      -4.0078      1.00000
     34      -3.9140      1.00000
     35      -3.7670      1.00000
     36      -3.7558      1.00000
     37      -2.3257      1.00000
     38      -2.2398      1.00000
     39      -2.1931      1.00000
     40      -2.1409      1.00000
     41      -2.0565      1.00000
     42      -2.0159      1.00000
     43      -1.9822      1.00000
     44      -1.8575      1.00000
     45      -1.7997      1.00000
     46      -1.7113      1.00000
     47      -1.5670      1.00000
     48      -1.5533      1.00000
     49      -1.4433      1.00000
     50      -1.3660      1.00000
     51      -1.3444      1.00000
     52      -1.3189      1.00000
     53      -1.2019      1.00000
     54      -1.1784      1.00000
     55      -0.9312      1.00000
     56      -0.8606      1.00000
     57      -0.7111      1.00000
     58      -0.6587      1.00000
     59      -0.5376      1.00000
     60      -0.4485      1.00000
     61      -0.2343      1.00000
     62      -0.1672      1.00000
     63      -0.1422      1.00000
     64      -0.0336      1.00000
     65       0.0174      1.00000
     66       0.0497      1.00000
     67       0.0789      1.00000
     68       0.1801      1.00000
     69       0.2587      1.00000
     70       0.3339      1.00000
     71       0.3795      1.00000
     72       0.4489      1.00000
     73       0.5495      1.00000
     74       0.5563      1.00000
     75       0.6404      1.00000
     76       0.6995      1.00000
     77       0.8218      1.00000
     78       0.8965      1.00000
     79       1.0547      1.00000
     80       1.0935      1.00000
     81       4.2086      0.00000
     82       4.2449      0.00000
     83       4.4489      0.00000
     84       4.4895      0.00000
     85       4.7859      0.00000
     86       4.8192      0.00000
     87       4.9053      0.00000
     88       4.9261      0.00000
     89       5.0264      0.00000
     90       5.0741      0.00000
     91       5.2399      0.00000
     92       5.2607      0.00000
     93       6.2615      0.00000
     94       6.2995      0.00000
     95       6.5645      0.00000
     96       6.5817      0.00000
     97       6.8661      0.00000
     98       6.9418      0.00000
     99       7.4867      0.00000
    100       7.6209      0.00000
    101       9.1173      0.00000
    102       9.6864      0.00000
    103      10.2832      0.00000
    104      10.4309      0.00000
    105      10.6461      0.00000
    106      10.7701      0.00000
    107      10.9416      0.00000
    108      11.0175      0.00000
    109      11.2202      0.00000
    110      11.3098      0.00000
    111      11.4022      0.00000
    112      11.4746      0.00000
    113      11.6170      0.00000
    114      11.8386      0.00000
    115      12.0209      0.00000
    116      12.0887      0.00000

 k-point    12 :       0.5000    0.3333    0.3333
  band No.  band energies     occupation 
      1     -19.0248      1.00000
      2     -19.0248      1.00000
      3     -18.9808      1.00000
      4     -18.9808      1.00000
      5     -16.7299      1.00000
      6     -16.7299      1.00000
      7     -16.7179      1.00000
      8     -16.7179      1.00000
      9     -16.5094      1.00000
     10     -16.5094      1.00000
     11     -16.4852      1.00000
     12     -16.4852      1.00000
     13     -16.4579      1.00000
     14     -16.4578      1.00000
     15     -16.4344      1.00000
     16     -16.4344      1.00000
     17     -14.6133      1.00000
     18     -14.6133      1.00000
     19     -14.3846      1.00000
     20     -14.3846      1.00000
     21      -6.5325      1.00000
     22      -6.5325      1.00000
     23      -6.4059      1.00000
     24      -6.4059      1.00000
     25      -4.5657      1.00000
     26      -4.5657      1.00000
     27      -4.3987      1.00000
     28      -4.3987      1.00000
     29      -4.1214      1.00000
     30      -4.1214      1.00000
     31      -4.0979      1.00000
     32      -4.0979      1.00000
     33      -3.8474      1.00000
     34      -3.8474      1.00000
     35      -3.7450      1.00000
     36      -3.7450      1.00000
     37      -2.2927      1.00000
     38      -2.2927      1.00000
     39      -2.2301      1.00000
     40      -2.2301      1.00000
     41      -2.0574      1.00000
     42      -2.0574      1.00000
     43      -1.9208      1.00000
     44      -1.9208      1.00000
     45      -1.8337      1.00000
     46      -1.8337      1.00000
     47      -1.6519      1.00000
     48      -1.6519      1.00000
     49      -1.5275      1.00000
     50      -1.5275      1.00000
     51      -1.3583      1.00000
     52      -1.3583      1.00000
     53      -1.2529      1.00000
     54      -1.2529      1.00000
     55      -1.0162      1.00000
     56      -1.0162      1.00000
     57      -0.7239      1.00000
     58      -0.7239      1.00000
     59      -0.6103      1.00000
     60      -0.6103      1.00000
     61      -0.2091      1.00000
     62      -0.2091      1.00000
     63      -0.0606      1.00000
     64      -0.0606      1.00000
     65       0.1318      1.00000
     66       0.1318      1.00000
     67       0.2186      1.00000
     68       0.2186      1.00000
     69       0.3100      1.00000
     70       0.3100      1.00000
     71       0.3571      1.00000
     72       0.3571      1.00000
     73       0.5172      1.00000
     74       0.5172      1.00000
     75       0.6401      1.00000
     76       0.6401      1.00000
     77       0.8240      1.00000
     78       0.8240      1.00000
     79       0.9444      1.00000
     80       0.9444      1.00000
     81       4.2993      0.00000
     82       4.2993      0.00000
     83       4.3330      0.00000
     84       4.3330      0.00000
     85       4.6902      0.00000
     86       4.6902      0.00000
     87       4.9191      0.00000
     88       4.9191      0.00000
     89       5.0462      0.00000
     90       5.0462      0.00000
     91       5.1859      0.00000
     92       5.1859      0.00000
     93       6.6086      0.00000
     94       6.6086      0.00000
     95       6.6922      0.00000
     96       6.6922      0.00000
     97       7.0926      0.00000
     98       7.0926      0.00000
     99       7.7219      0.00000
    100       7.7219      0.00000
    101       9.7381      0.00000
    102       9.7381      0.00000
    103      10.1145      0.00000
    104      10.1145      0.00000
    105      10.6525      0.00000
    106      10.6525      0.00000
    107      10.9126      0.00000
    108      10.9126      0.00000
    109      11.3442      0.00000
    110      11.3442      0.00000
    111      11.4420      0.00000
    112      11.4420      0.00000
    113      11.9622      0.00000
    114      11.9634      0.00000
    115      12.1135      0.00000
    116      12.1389      0.00000


--------------------------------------------------------------------------------------------------------


 soft charge-density along one line, spin component           1
         0         1         2         3         4         5         6         7         8         9
 total charge-density along one line
 
 soft charge-density along one line, spin component           2
         0         1         2         3         4         5         6         7         8         9
 total charge-density along one line
 
 pseudopotential strength for first ion, spin component:           1
  1.175   5.254   0.000   0.000   0.000
  5.254  22.466   0.000   0.000   0.000
  0.000   0.000  -0.344  -0.000   0.000
  0.000   0.000  -0.000  -0.345  -0.001
  0.000   0.000   0.000  -0.001  -0.344
 pseudopotential strength for first ion, spin component:           2
  1.175   5.254   0.000   0.000   0.000
  5.254  22.466   0.000   0.000   0.000
  0.000   0.000  -0.344  -0.000   0.000
  0.000   0.000  -0.000  -0.345  -0.001
  0.000   0.000   0.000  -0.001  -0.344
 total augmentation occupancy for first ion, spin component:           1
  0.806  -0.022   0.000   0.000   0.000
 -0.022   0.001   0.000   0.000   0.000
  0.000   0.000   0.091  -0.015  -0.008
  0.000   0.000  -0.015   0.062  -0.006
  0.000   0.000  -0.008  -0.006   0.073
 total augmentation occupancy for first ion, spin component:           2
 -0.000  -0.000   0.000   0.000   0.000
 -0.000   0.000   0.000   0.000   0.000
  0.000   0.000  -0.000   0.000   0.000
  0.000   0.000   0.000  -0.000  -0.000
  0.000   0.000   0.000  -0.000  -0.000


------------------------ aborting loop because EDIFF is reached ----------------------------------------





 total charge

# of ion       s       p       d       tot
------------------------------------------
    1        0.078   0.163   0.000   0.241
    2        0.078   0.163   0.000   0.241
    3        0.078   0.163   0.000   0.241
    4        0.078   0.163   0.000   0.241
    5        0.546   1.012   2.654   4.212
    6        0.546   1.012   2.654   4.212
    7        0.546   1.012   2.654   4.212
    8        0.546   1.012   2.654   4.212
    9        0.907   1.500   0.000   2.408
   10        0.907   1.500   0.000   2.408
   11        0.907   1.500   0.000   2.408
   12        0.907   1.500   0.000   2.408
   13        1.561   3.616   0.000   5.177
   14        1.561   3.616   0.000   5.177
   15        1.561   3.616   0.000   5.177
   16        1.561   3.616   0.000   5.177
   17        1.561   3.616   0.000   5.177
   18        1.561   3.616   0.000   5.177
   19        1.561   3.616   0.000   5.177
   20        1.561   3.616   0.000   5.177
   21        1.574   3.443   0.000   5.016
   22        1.574   3.443   0.000   5.016
   23        1.574   3.443   0.000   5.016
   24        1.574   3.443   0.000   5.016
   25        1.560   3.603   0.000   5.163
   26        1.560   3.603   0.000   5.163
   27        1.560   3.603   0.000   5.163
   28        1.560   3.603   0.000   5.163
   29        1.564   3.598   0.000   5.162
   30        1.564   3.598   0.000   5.162
   31        1.564   3.598   0.000   5.162
   32        1.564   3.598   0.000   5.162
--------------------------------------------------
tot         37.403  82.200  10.617 130.220



 magnetization (x)

# of ion       s       p       d       tot
------------------------------------------
    1       -0.000  -0.000   0.000  -0.000
    2       -0.000  -0.000   0.000  -0.000
    3       -0.000  -0.000   0.000  -0.000
    4       -0.000  -0.000   0.000  -0.000
    5       -0.000  -0.000  -0.000  -0.000
    6       -0.000  -0.000  -0.000  -0.000
    7       -0.000  -0.000  -0.000  -0.000
    8       -0.000  -0.000  -0.000  -0.000
    9       -0.000  -0.000   0.000  -0.000
   10       -0.000  -0.000   0.000  -0.000
   11       -0.000  -0.000   0.000  -0.000
   12       -0.000  -0.000   0.000  -0.000
   13        0.000   0.000   0.000   0.000
   14        0.000   0.000   0.000   0.000
   15        0.000   0.000   0.000   0.000
   16        0.000   0.000   0.000   0.000
   17        0.000   0.000   0.000   0.000
   18        0.000   0.000   0.000   0.000
   19        0.000   0.000   0.000   0.000
   20        0.000   0.000   0.000   0.000
   21        0.000   0.000   0.000   0.000
   22        0.000   0.000   0.000   0.000
   23        0.000   0.000   0.000   0.000
   24        0.000   0.000   0.000   0.000
   25        0.000   0.000   0.000   0.000
   26        0.000   0.000   0.000   0.000
   27        0.000   0.000   0.000   0.000
   28        0.000   0.000   0.000   0.000
   29       -0.000   0.000   0.000   0.000
   30       -0.000   0.000   0.000   0.000
   31       -0.000   0.000   0.000   0.000
   32       -0.000   0.000   0.000   0.000
--------------------------------------------------
tot         -0.000   0.000  -0.000   0.000
 
    CHARGE:  cpu time      0.1208: real time      0.1218
    FORLOC:  cpu time      0.0030: real time      0.0074
    FORNL :  cpu time      0.5967: real time      0.6124
    STRESS:  cpu time      0.7315: real time      0.7837
    FORCOR:  cpu time      0.0325: real time      0.0441
    FORHAR:  cpu time      0.0064: real time      0.0137
    MIXING:  cpu time      0.0011: real time      0.0011
    OFIELD:  cpu time      0.0002: real time      0.0152

 ---------------------------------------------------------------------------------------------

         DFTD3 V3.0 Rev 1        
 IVDW         = 11
 DF pbe       
 parameters
 VDW_S6       =    1.0000
 VDW_S8       =    0.7220
 VDW_SR       =    1.2170
 rs18     =    1.0000
 alpha6   =   14.0000
 alpha8   =   16.0000
 k1-k3    =   16.0000    1.3333   -4.0000
 VDW_RADIUS   =   50.2022 A
 VDW_CNRADIUS =   21.1671 A
 Edisp (eV)   -4.78620

 E6    (eV) :    -2.3243
 E8    (eV) :    -2.4619
 % E8        : 51.44
    FORVDW:  cpu time      0.2228: real time      0.2443

  FORCE on cell =-STRESS in cart. coord.  units (eV):
  Direction    XX          YY          ZZ          XY          YZ          ZX
  --------------------------------------------------------------------------------------
  Alpha Z   419.57651   419.57651   419.57651
  Ewald   -2319.48605 -2300.72474 -2391.84400    -0.00000    -0.00004    -0.00000
  Hartree  1070.62590  1054.78364  1014.17263    -0.00000     0.00000    -0.00000
  E(xc)    -752.24939  -752.44087  -756.76728    -0.00000     0.00000    -0.00000
  Local   -1239.98730 -1237.32283 -1117.65072     0.00000     0.00004     0.00000
  n-local  -283.81313  -286.52917  -294.05434     0.00100     0.00560     0.00125
  augment   118.61221   118.71384   122.43317     0.00000    -0.00000     0.00000
  Kinetic  2990.93906  2988.35765  3008.04192    -0.09285    -0.03970     0.01861
  Fock        0.00000     0.00000     0.00000     0.00000     0.00000     0.00000
  vdW        -4.28575    -4.48498    -3.98860    -0.00000    -0.00000    -0.00000
  -------------------------------------------------------------------------------------
  Total      -0.06795    -0.07094    -0.08072     0.00000     0.00000     0.00000
  in kB      -0.31499    -0.32889    -0.37420     0.00000     0.00000     0.00000
  external pressure =       -0.34 kB  Pullay stress =        0.00 kB


 VOLUME and BASIS-vectors are now :
 -----------------------------------------------------------------------------
  energy-cutoff  :      600.00
  volume of cell :      345.60
      direct lattice vectors                 reciprocal lattice vectors
     6.430810257  0.000000000  0.000000000     0.155501400  0.000000000  0.000000000
     0.000000000  7.266908343  0.000000000     0.000000000  0.137610102  0.000000000
     0.000000000  0.000000000  7.395408592     0.000000000  0.000000000  0.135219033

  length of vectors
     6.430810257  7.266908343  7.395408592     0.155501400  0.137610102  0.135219033


 FORCES acting on ions
    electron-ion (+dipol)            ewald-force                    non-local-force                 convergence-correction
 -----------------------------------------------------------------------------------------------
   0.273E-06 0.173E-06 0.118E-06   -.169E-05 -.584E-06 -.275E-05   0.170E-23 0.976E-24 -.611E-23   0.167E-08 -.948E-08 0.147E-07
   0.190E-06 0.265E-06 -.185E-06   -.186E-05 -.519E-05 0.199E-05   -.108E-23 0.470E-23 -.470E-23   -.128E-08 0.102E-07 -.141E-07
   -.159E-06 0.315E-06 -.167E-06   0.157E-05 -.564E-05 0.183E-05   0.106E-23 0.164E-23 0.180E-23   0.128E-08 0.102E-07 -.141E-07
   -.242E-06 0.223E-06 0.998E-07   0.141E-05 -.103E-05 -.259E-05   -.126E-23 -.592E-23 -.465E-23   -.167E-08 -.944E-08 0.147E-07
   -.742E-06 0.432E+01 -.515E+01   0.672E-05 -.450E+01 0.616E+01   -.696E-20 0.161E+00 -.104E+01   -.330E-08 0.532E-05 0.642E-05
   0.242E-07 -.432E+01 0.515E+01   -.222E-06 0.450E+01 -.616E+01   -.226E-19 -.161E+00 0.104E+01   0.283E-08 -.529E-05 -.632E-05
   0.242E-07 0.432E+01 0.515E+01   -.222E-06 -.450E+01 -.616E+01   0.112E-19 0.161E+00 0.104E+01   0.283E-08 0.529E-05 -.645E-05
   -.742E-06 -.432E+01 -.515E+01   0.672E-05 0.450E+01 0.616E+01   0.128E-19 -.161E+00 -.104E+01   -.330E-08 -.532E-05 0.636E-05
   -.885E-06 0.440E+01 0.687E+01   0.833E-05 -.425E+01 -.690E+01   0.167E-18 -.119E+00 0.871E-02   0.437E-08 0.129E-04 0.100E-04
   -.538E-07 -.440E+01 -.687E+01   0.491E-06 0.425E+01 0.690E+01   -.207E-18 0.119E+00 -.871E-02   -.389E-08 -.128E-04 -.985E-05
   -.538E-07 0.440E+01 -.687E+01   0.491E-06 -.425E+01 0.690E+01   0.169E-18 -.119E+00 -.871E-02   -.389E-08 0.127E-04 -.101E-04
   -.885E-06 -.440E+01 0.687E+01   0.833E-05 0.425E+01 -.690E+01   0.149E-18 0.119E+00 0.871E-02   0.437E-08 -.129E-04 0.989E-05
   -.600E+02 0.953E+02 -.172E+01   0.785E+02 -.119E+03 0.215E+01   -.185E+02 0.234E+02 -.441E+00   0.357E-04 -.506E-05 0.560E-05
   0.600E+02 -.953E+02 -.172E+01   -.785E+02 0.119E+03 0.215E+01   0.185E+02 -.234E+02 -.441E+00   -.357E-04 0.506E-05 0.589E-05
   0.600E+02 0.953E+02 0.172E+01   -.785E+02 -.119E+03 -.215E+01   0.185E+02 0.234E+02 0.441E+00   -.357E-04 -.507E-05 -.566E-05
   -.600E+02 -.953E+02 0.172E+01   0.785E+02 0.119E+03 -.215E+01   -.185E+02 -.234E+02 0.441E+00   0.357E-04 0.506E-05 -.584E-05
   0.600E+02 -.953E+02 0.172E+01   -.785E+02 0.119E+03 -.215E+01   0.185E+02 -.234E+02 0.441E+00   -.357E-04 0.506E-05 -.584E-05
   0.600E+02 0.953E+02 -.172E+01   -.785E+02 -.119E+03 0.215E+01   0.185E+02 0.234E+02 -.441E+00   -.357E-04 -.506E-05 0.560E-05
   -.600E+02 -.953E+02 -.172E+01   0.785E+02 0.119E+03 0.215E+01   -.185E+02 -.234E+02 -.441E+00   0.357E-04 0.506E-05 0.589E-05
   -.600E+02 0.953E+02 0.172E+01   0.785E+02 -.119E+03 -.215E+01   -.185E+02 0.234E+02 0.441E+00   0.357E-04 -.507E-05 -.566E-05
   -.350E-06 0.491E+02 0.156E+02   0.318E-05 -.545E+02 -.245E+02   -.105E-18 0.545E+01 0.894E+01   -.650E-08 0.277E-04 0.312E-04
   0.393E-07 -.491E+02 -.156E+02   -.360E-06 0.545E+02 0.245E+02   0.557E-19 -.545E+01 -.894E+01   0.559E-08 -.278E-04 -.310E-04
   0.393E-07 0.491E+02 -.156E+02   -.360E-06 -.545E+02 0.245E+02   0.545E-19 0.545E+01 -.894E+01   0.559E-08 0.278E-04 -.312E-04
   -.350E-06 -.491E+02 0.156E+02   0.318E-05 0.545E+02 -.245E+02   -.717E-19 -.545E+01 0.894E+01   -.650E-08 -.277E-04 0.309E-04
   -.220E-06 -.280E+02 -.108E+03   0.199E-05 0.396E+02 0.135E+03   -.670E-20 -.117E+02 -.275E+02   -.604E-08 0.225E-04 -.269E-05
   0.346E-07 0.280E+02 0.108E+03   -.323E-06 -.396E+02 -.135E+03   -.432E-20 0.117E+02 0.275E+02   0.605E-08 -.227E-04 0.277E-05
   0.346E-07 -.280E+02 0.108E+03   -.323E-06 0.396E+02 -.135E+03   -.667E-19 -.117E+02 0.275E+02   0.605E-08 0.227E-04 0.261E-05
   -.220E-06 0.280E+02 -.108E+03   0.199E-05 -.396E+02 0.135E+03   -.656E-19 0.117E+02 -.275E+02   -.604E-08 -.225E-04 -.270E-05
   0.333E-07 -.184E+02 -.109E+03   -.313E-06 0.247E+02 0.138E+03   0.246E-19 -.627E+01 -.283E+02   0.608E-08 0.355E-04 0.274E-04
   -.177E-06 0.184E+02 0.109E+03   0.162E-05 -.247E+02 -.138E+03   0.120E-18 0.627E+01 0.283E+02   -.597E-08 -.353E-04 -.271E-04
   -.177E-06 -.184E+02 0.109E+03   0.162E-05 0.247E+02 -.138E+03   -.100E-18 -.627E+01 0.283E+02   -.597E-08 0.352E-04 -.274E-04
   0.333E-07 0.184E+02 -.109E+03   -.313E-06 -.247E+02 0.138E+03   -.145E-18 0.627E+01 -.283E+02   0.608E-08 -.355E-04 0.271E-04
 -----------------------------------------------------------------------------------------------
   -.157E-03 0.130E-03 0.857E-04   0.341E-13 -.160E-12 -.568E-13   0.355E-14 0.977E-14 0.000E+00   -.606E-10 -.209E-07 -.947E-08
 
 
 POSITION                                       TOTAL-FORCE (eV/Angst)
 -----------------------------------------------------------------------------------
      0.00000      0.00000      0.00000        -0.000000     -0.000000     -0.000000
      3.21541      3.63345      3.69770        -0.000000     -0.000000     -0.000000
      0.00000      3.63345      3.69770        -0.000000     -0.000000      0.000000
      3.21541      0.00000      0.00000        -0.000000     -0.000000      0.000000
      4.82311      2.02127      6.20146        -0.000000     -0.000548     -0.000470
      1.60770      5.24564      1.19395        -0.000000      0.000548      0.000470
      1.60770      5.65472      4.89165        -0.000000     -0.000548      0.000470
      4.82311      1.61219      2.50375        -0.000000      0.000548     -0.000470
      1.60770      2.68640      6.46207        -0.000000      0.000423     -0.000290
      4.82311      4.58050      0.93334        -0.000000     -0.000423      0.000290
      4.82311      6.31986      4.63104        -0.000000      0.000423      0.000290
      1.60770      0.94705      2.76436        -0.000000     -0.000423     -0.000290
      6.06528      5.40615      4.64383        -0.001055      0.000884     -0.000059
      3.58093      5.49421      0.94612         0.001055     -0.000884     -0.000059
      0.36553      1.77270      6.44929         0.001055      0.000884      0.000059
      2.84988      1.86076      2.75158        -0.001055     -0.000884      0.000059
      0.36553      1.86076      2.75158         0.001055     -0.000884      0.000059
      3.58093      5.40615      4.64383         0.001055      0.000884     -0.000059
      6.06528      5.49421      0.94612        -0.001055     -0.000884     -0.000059
      2.84988      1.77270      6.44929        -0.001055      0.000884      0.000059
      4.82311      1.13473      0.80535        -0.000000     -0.000165      0.000803
      1.60770      6.13218      6.59006        -0.000000      0.000165     -0.000803
      1.60770      4.76818      2.89236        -0.000000     -0.000165     -0.000803
      4.82311      2.49873      4.50305        -0.000000      0.000165      0.000803
      4.82311      7.24086      5.88104        -0.000000     -0.000632     -0.000979
      1.60770      0.02605      1.51437        -0.000000      0.000632      0.000979
      1.60770      3.60741      5.21207        -0.000000     -0.000632      0.000979
      4.82311      3.65950      2.18333        -0.000000      0.000632     -0.000979
      1.60770      3.51712      0.37134        -0.000000     -0.001099     -0.001743
      4.82311      3.74979      7.02407        -0.000000      0.001099      0.001743
      4.82311      7.15057      3.32637        -0.000000     -0.001099      0.001743
      1.60770      0.11634      4.06904        -0.000000      0.001099     -0.001743
 -----------------------------------------------------------------------------------
    total drift:                               -0.000157      0.000130      0.000086


--------------------------------------------------------------------------------------------------------



  FREE ENERGIE OF THE ION-ELECTRON SYSTEM (eV)
  ---------------------------------------------------
  free  energy   TOTEN  =      -246.43121541 eV

  energy  without entropy=     -246.43121541  energy(sigma->0) =     -246.43121541
 


--------------------------------------------------------------------------------------------------------


    POTLOK:  cpu time      0.2492: real time      0.2558


--------------------------------------------------------------------------------------------------------


 stress matrix after NEB project (eV)
     -0.06795      0.00000      0.00000
      0.00000     -0.07094      0.00000
      0.00000      0.00000     -0.08072
  FORCES: max atom, RMS     0.002061    0.001165
  FORCE total and by dimension    0.006589    0.001743
  Stress total and by dimension    0.127143    0.080719


--------------------------------------------------------------------------------------------------------


    WAVPRE:  cpu time      0.0124: real time      0.1778
    FEWALD:  cpu time      0.0005: real time      0.0031
    GENKIN:  cpu time      0.0165: real time      0.0165
    ORTHCH:  cpu time      0.1617: real time      0.1622
     LOOP+:  cpu time     70.9542: real time     71.8194


--------------------------------------- Ionic step        2  -------------------------------------------




--------------------------------------- Iteration      2(   1)  ---------------------------------------


    POTLOK:  cpu time      0.0358: real time      0.0360
    SETDIJ:  cpu time      0.0086: real time      0.0086
     EDDAV:  cpu time      2.9004: real time      2.9140
       DOS:  cpu time      0.0011: real time      0.0011
    CHARGE:  cpu time      0.1105: real time      0.1116
    MIXING:  cpu time      0.0008: real time      0.0008
    --------------------------------------------
      LOOP:  cpu time      3.0572: real time      3.0721

 eigenvalue-minimisations  :  6256
 total energy-change (2. order) : 0.5354611E-03  (-0.4045394E-04)
 number of electron     160.0000022 magnetization      -0.0000002
 augmentation part       15.0594447 magnetization      -0.0000002

 Broyden mixing:
  rms(total) = 0.38288E-02    rms(broyden)= 0.38279E-02
  rms(prec ) = 0.47923E-02
  weight for this iteration     100.00

 Free energy of the ion-electron system (eV)
  ---------------------------------------------------
  alpha Z        PSCENC =       419.63208405
  Ewald energy   TEWEN  =     -7012.27558956
  -Hartree energ DENC   =     -3139.76224441
  -exchange      EXHF   =         0.00000000
  -V(xc)+E(xc)   XCENC  =       437.03923398
  PAW double counting   =     21463.76082668   -21288.44833325
  entropy T*S    EENTRO =        -0.00000000
  eigenvalues    EBANDS =      -873.37087699
  atomic energy  EATOM  =      9751.78041952
  Solvation  Ediel_sol  =         0.00000000
  ---------------------------------------------------
  free energy    TOTEN  =      -241.64447997 eV

  energy without entropy =     -241.64447997  energy(sigma->0) =     -241.64447997


--------------------------------------------------------------------------------------------------------




--------------------------------------- Iteration      2(   2)  ---------------------------------------


    POTLOK:  cpu time      0.0430: real time      0.0531
    SETDIJ:  cpu time      0.0084: real time      0.0084
     EDDAV:  cpu time      3.2582: real time      3.2740
       DOS:  cpu time      0.0011: real time      0.0036
    CHARGE:  cpu time      0.1158: real time      0.1161
    MIXING:  cpu time      0.0008: real time      0.0008
    --------------------------------------------
      LOOP:  cpu time      3.4273: real time      3.4560

 eigenvalue-minimisations  :  7664
 total energy-change (2. order) : 0.8929585E-05  (-0.5805583E-05)
 number of electron     160.0000022 magnetization      -0.0000001
 augmentation part       15.0581136 magnetization      -0.0000001

 Broyden mixing:
  rms(total) = 0.27399E-02    rms(broyden)= 0.27397E-02
  rms(prec ) = 0.34338E-02
  weight for this iteration     100.00

 eigenvalues of (default mixing * dielectric matrix)
  average eigenvalue GAMMA=   0.7004
  0.7004

 Free energy of the ion-electron system (eV)
  ---------------------------------------------------
  alpha Z        PSCENC =       419.63208405
  Ewald energy   TEWEN  =     -7012.27558956
  -Hartree energ DENC   =     -3139.51555947
  -exchange      EXHF   =         0.00000000
  -V(xc)+E(xc)   XCENC  =       437.02178292
  PAW double counting   =     21468.44776064   -21293.13545665
  entropy T*S    EENTRO =        -0.00000000
  eigenvalues    EBANDS =      -873.59991249
  atomic energy  EATOM  =      9751.78041952
  Solvation  Ediel_sol  =         0.00000000
  ---------------------------------------------------
  free energy    TOTEN  =      -241.64447104 eV

  energy without entropy =     -241.64447104  energy(sigma->0) =     -241.64447104


--------------------------------------------------------------------------------------------------------




--------------------------------------- Iteration      2(   3)  ---------------------------------------


    POTLOK:  cpu time      0.0320: real time      0.0391
    SETDIJ:  cpu time      0.0083: real time      0.0083
     EDDAV:  cpu time      3.2002: real time      3.2144
       DOS:  cpu time      0.0011: real time      0.0011
    CHARGE:  cpu time      0.1097: real time      0.1100
    MIXING:  cpu time      0.0009: real time      0.0009
    --------------------------------------------
      LOOP:  cpu time      3.3522: real time      3.3737

 eigenvalue-minimisations  :  7584
 total energy-change (2. order) : 0.4278181E-05  (-0.1163383E-05)
 number of electron     160.0000022 magnetization      -0.0000000
 augmentation part       15.0600250 magnetization       0.0000000

 Broyden mixing:
  rms(total) = 0.71698E-03    rms(broyden)= 0.71691E-03
  rms(prec ) = 0.89742E-03
  weight for this iteration     100.00

 eigenvalues of (default mixing * dielectric matrix)
  average eigenvalue GAMMA=   0.9932
  1.4099  0.5765

 Free energy of the ion-electron system (eV)
  ---------------------------------------------------
  alpha Z        PSCENC =       419.63208405
  Ewald energy   TEWEN  =     -7012.27558956
  -Hartree energ DENC   =     -3139.53356524
  -exchange      EXHF   =         0.00000000
  -V(xc)+E(xc)   XCENC  =       437.02468051
  PAW double counting   =     21469.50125112   -21294.18851078
  entropy T*S    EENTRO =        -0.00000000
  eigenvalues    EBANDS =      -873.58523639
  atomic energy  EATOM  =      9751.78041952
  Solvation  Ediel_sol  =         0.00000000
  ---------------------------------------------------
  free energy    TOTEN  =      -241.64446676 eV

  energy without entropy =     -241.64446676  energy(sigma->0) =     -241.64446676


--------------------------------------------------------------------------------------------------------




--------------------------------------- Iteration      2(   4)  ---------------------------------------


    POTLOK:  cpu time      0.0317: real time      0.0318
    SETDIJ:  cpu time      0.0083: real time      0.0083
     EDDAV:  cpu time      3.1169: real time      3.1331
       DOS:  cpu time      0.0011: real time      0.0011
    CHARGE:  cpu time      0.1162: real time      0.1171
    MIXING:  cpu time      0.0009: real time      0.0009
    --------------------------------------------
      LOOP:  cpu time      3.2751: real time      3.2923

 eigenvalue-minimisations  :  7608
 total energy-change (2. order) : 0.1472763E-06  (-0.1099333E-06)
 number of electron     160.0000022 magnetization       0.0000000
 augmentation part       15.0597056 magnetization       0.0000000

 Broyden mixing:
  rms(total) = 0.40951E-03    rms(broyden)= 0.40950E-03
  rms(prec ) = 0.43761E-03
  weight for this iteration     100.00

 eigenvalues of (default mixing * dielectric matrix)
  average eigenvalue GAMMA=   1.2611
  0.5280  1.1004  2.1548

 Free energy of the ion-electron system (eV)
  ---------------------------------------------------
  alpha Z        PSCENC =       419.63208405
  Ewald energy   TEWEN  =     -7012.27558956
  -Hartree energ DENC   =     -3139.49859217
  -exchange      EXHF   =         0.00000000
  -V(xc)+E(xc)   XCENC  =       437.02245728
  PAW double counting   =     21470.69987423   -21295.38904030
  entropy T*S    EENTRO =        -0.00000000
  eigenvalues    EBANDS =      -873.61607967
  atomic energy  EATOM  =      9751.78041952
  Solvation  Ediel_sol  =         0.00000000
  ---------------------------------------------------
  free energy    TOTEN  =      -241.64446661 eV

  energy without entropy =     -241.64446661  energy(sigma->0) =     -241.64446661


--------------------------------------------------------------------------------------------------------




--------------------------------------- Iteration      2(   5)  ---------------------------------------


    POTLOK:  cpu time      0.0325: real time      0.0328
    SETDIJ:  cpu time      0.0082: real time      0.0084
     EDDAV:  cpu time      2.9726: real time      3.0899
       DOS:  cpu time      0.0011: real time      0.0011
    CHARGE:  cpu time      0.1095: real time      0.1098
    MIXING:  cpu time      0.0009: real time      0.0009
    --------------------------------------------
      LOOP:  cpu time      3.1248: real time      3.2430

 eigenvalue-minimisations  :  6544
 total energy-change (2. order) :-0.3461100E-06  (-0.4094264E-07)
 number of electron     160.0000022 magnetization       0.0000000
 augmentation part       15.0597618 magnetization       0.0000000

 Broyden mixing:
  rms(total) = 0.10447E-03    rms(broyden)= 0.10446E-03
  rms(prec ) = 0.14239E-03
  weight for this iteration     100.00

 eigenvalues of (default mixing * dielectric matrix)
  average eigenvalue GAMMA=   1.1196
  1.7839  0.5375  1.1956  0.9613

 Free energy of the ion-electron system (eV)
  ---------------------------------------------------
  alpha Z        PSCENC =       419.63208405
  Ewald energy   TEWEN  =     -7012.27558956
  -Hartree energ DENC   =     -3139.49345504
  -exchange      EXHF   =         0.00000000
  -V(xc)+E(xc)   XCENC  =       437.02243562
  PAW double counting   =     21471.53887974   -21296.22943724
  entropy T*S    EENTRO =        -0.00000000
  eigenvalues    EBANDS =      -873.61980407
  atomic energy  EATOM  =      9751.78041952
  Solvation  Ediel_sol  =         0.00000000
  ---------------------------------------------------
  free energy    TOTEN  =      -241.64446696 eV

  energy without entropy =     -241.64446696  energy(sigma->0) =     -241.64446696


--------------------------------------------------------------------------------------------------------




--------------------------------------- Iteration      2(   6)  ---------------------------------------


    POTLOK:  cpu time      0.0319: real time      0.0321
    SETDIJ:  cpu time      0.0087: real time      0.0087
     EDDAV:  cpu time      2.5055: real time      2.5191
       DOS:  cpu time      0.0011: real time      0.0011
    CHARGE:  cpu time      0.1096: real time      0.1100
    MIXING:  cpu time      0.0012: real time      0.0012
    --------------------------------------------
      LOOP:  cpu time      2.6580: real time      2.6721

 eigenvalue-minimisations  :  5680
 total energy-change (2. order) :-0.2933848E-07  (-0.4750240E-08)
 number of electron     160.0000022 magnetization       0.0000000
 augmentation part       15.0597657 magnetization       0.0000000

 Broyden mixing:
  rms(total) = 0.62148E-04    rms(broyden)= 0.62141E-04
  rms(prec ) = 0.65099E-04
  weight for this iteration     100.00

 eigenvalues of (default mixing * dielectric matrix)
  average eigenvalue GAMMA=   1.1721
  2.1403  1.4155  0.5349  0.8850  0.8850

 Free energy of the ion-electron system (eV)
  ---------------------------------------------------
  alpha Z        PSCENC =       419.63208405
  Ewald energy   TEWEN  =     -7012.27558956
  -Hartree energ DENC   =     -3139.49721777
  -exchange      EXHF   =         0.00000000
  -V(xc)+E(xc)   XCENC  =       437.02264356
  PAW double counting   =     21471.38854515   -21296.07904191
  entropy T*S    EENTRO =        -0.00000000
  eigenvalues    EBANDS =      -873.61631004
  atomic energy  EATOM  =      9751.78041952
  Solvation  Ediel_sol  =         0.00000000
  ---------------------------------------------------
  free energy    TOTEN  =      -241.64446699 eV

  energy without entropy =     -241.64446699  energy(sigma->0) =     -241.64446699


--------------------------------------------------------------------------------------------------------




--------------------------------------- Iteration      2(   7)  ---------------------------------------


    POTLOK:  cpu time      0.0317: real time      0.0318
    SETDIJ:  cpu time      0.0085: real time      0.0086
     EDDAV:  cpu time      1.8501: real time      1.8589
       DOS:  cpu time      0.0010: real time      0.0010
    CHARGE:  cpu time      0.1105: real time      0.1108
    MIXING:  cpu time      0.0013: real time      0.0013
    --------------------------------------------
      LOOP:  cpu time      2.0032: real time      2.0123

 eigenvalue-minimisations  :  3432
 total energy-change (2. order) :-0.1078588E-06  (-0.7987025E-09)
 number of electron     160.0000022 magnetization      -0.0000000
 augmentation part       15.0597606 magnetization       0.0000000

 Broyden mixing:
  rms(total) = 0.40529E-04    rms(broyden)= 0.40528E-04
  rms(prec ) = 0.41990E-04
  weight for this iteration     100.00

 eigenvalues of (default mixing * dielectric matrix)
  average eigenvalue GAMMA=   1.3237
  2.5524  1.7642  0.5357  0.9512  1.0693  1.0693

 Free energy of the ion-electron system (eV)
  ---------------------------------------------------
  alpha Z        PSCENC =       419.63208405
  Ewald energy   TEWEN  =     -7012.27558956
  -Hartree energ DENC   =     -3139.49728026
  -exchange      EXHF   =         0.00000000
  -V(xc)+E(xc)   XCENC  =       437.02266281
  PAW double counting   =     21471.41294507   -21296.10364273
  entropy T*S    EENTRO =        -0.00000000
  eigenvalues    EBANDS =      -873.61606601
  atomic energy  EATOM  =      9751.78041952
  Solvation  Ediel_sol  =         0.00000000
  ---------------------------------------------------
  free energy    TOTEN  =      -241.64446710 eV

  energy without entropy =     -241.64446710  energy(sigma->0) =     -241.64446710


--------------------------------------------------------------------------------------------------------




--------------------------------------- Iteration      2(   8)  ---------------------------------------


    POTLOK:  cpu time      0.0327: real time      0.0328
    SETDIJ:  cpu time      0.0085: real time      0.0085
     EDDAV:  cpu time      1.7989: real time      1.8101
       DOS:  cpu time      0.0010: real time      0.0010
    CHARGE:  cpu time      0.1103: real time      0.1106
    MIXING:  cpu time      0.0010: real time      0.0010
    --------------------------------------------
      LOOP:  cpu time      1.9524: real time      1.9639

 eigenvalue-minimisations  :  3072
 total energy-change (2. order) :-0.7162089E-07  (-0.1264544E-09)
 number of electron     160.0000022 magnetization      -0.0000000
 augmentation part       15.0597632 magnetization      -0.0000000

 Broyden mixing:
  rms(total) = 0.13150E-04    rms(broyden)= 0.13149E-04
  rms(prec ) = 0.13883E-04
  weight for this iteration     100.00

 eigenvalues of (default mixing * dielectric matrix)
  average eigenvalue GAMMA=   1.3439
  2.6996  2.1317  0.5357  1.2143  0.9137  0.9563  0.9563

 Free energy of the ion-electron system (eV)
  ---------------------------------------------------
  alpha Z        PSCENC =       419.63208405
  Ewald energy   TEWEN  =     -7012.27558956
  -Hartree energ DENC   =     -3139.49777407
  -exchange      EXHF   =         0.00000000
  -V(xc)+E(xc)   XCENC  =       437.02270184
  PAW double counting   =     21471.36327104   -21296.05402747
  entropy T*S    EENTRO =        -0.00000000
  eigenvalues    EBANDS =      -873.61555252
  atomic energy  EATOM  =      9751.78041952
  Solvation  Ediel_sol  =         0.00000000
  ---------------------------------------------------
  free energy    TOTEN  =      -241.64446717 eV

  energy without entropy =     -241.64446717  energy(sigma->0) =     -241.64446717


--------------------------------------------------------------------------------------------------------




--------------------------------------- Iteration      2(   9)  ---------------------------------------


    POTLOK:  cpu time      0.0322: real time      0.0323
    SETDIJ:  cpu time      0.0084: real time      0.0085
     EDDAV:  cpu time      2.0070: real time      2.0214
       DOS:  cpu time      0.0010: real time      0.0010
    CHARGE:  cpu time      0.1089: real time      0.1097
    MIXING:  cpu time      0.0010: real time      0.0010
    --------------------------------------------
      LOOP:  cpu time      2.1585: real time      2.1740

 eigenvalue-minimisations  :  3072
 total energy-change (2. order) :-0.1935041E-07  (-0.6000725E-10)
 number of electron     160.0000022 magnetization      -0.0000000
 augmentation part       15.0597622 magnetization       0.0000000

 Broyden mixing:
  rms(total) = 0.39119E-05    rms(broyden)= 0.39109E-05
  rms(prec ) = 0.47283E-05
  weight for this iteration     100.00

 eigenvalues of (default mixing * dielectric matrix)
  average eigenvalue GAMMA=   1.3104
  2.9333  2.0258  0.5357  1.2039  0.9968  0.9968  0.8954  0.8954

 Free energy of the ion-electron system (eV)
  ---------------------------------------------------
  alpha Z        PSCENC =       419.63208405
  Ewald energy   TEWEN  =     -7012.27558956
  -Hartree energ DENC   =     -3139.49775182
  -exchange      EXHF   =         0.00000000
  -V(xc)+E(xc)   XCENC  =       437.02269839
  PAW double counting   =     21471.32276448   -21296.01350219
  entropy T*S    EENTRO =        -0.00000000
  eigenvalues    EBANDS =      -873.61559007
  atomic energy  EATOM  =      9751.78041952
  Solvation  Ediel_sol  =         0.00000000
  ---------------------------------------------------
  free energy    TOTEN  =      -241.64446719 eV

  energy without entropy =     -241.64446719  energy(sigma->0) =     -241.64446719


--------------------------------------------------------------------------------------------------------




--------------------------------------- Iteration      2(  10)  ---------------------------------------


    POTLOK:  cpu time      0.0324: real time      0.0332
    SETDIJ:  cpu time      0.0082: real time      0.0082
     EDDAV:  cpu time      1.8085: real time      1.8300
       DOS:  cpu time      0.0012: real time      0.0012
    --------------------------------------------
      LOOP:  cpu time      1.8503: real time      1.8725

 eigenvalue-minimisations  :  3072
 total energy-change (2. order) :-0.4811227E-08  (-0.1518182E-10)
 number of electron     160.0000022 magnetization      -0.0000000
 augmentation part       15.0597622 magnetization       0.0000000

 Free energy of the ion-electron system (eV)
  ---------------------------------------------------
  alpha Z        PSCENC =       419.63208405
  Ewald energy   TEWEN  =     -7012.27558956
  -Hartree energ DENC   =     -3139.49764569
  -exchange      EXHF   =         0.00000000
  -V(xc)+E(xc)   XCENC  =       437.02269324
  PAW double counting   =     21471.32014424   -21296.01087561
  entropy T*S    EENTRO =        -0.00000000
  eigenvalues    EBANDS =      -873.61569739
  atomic energy  EATOM  =      9751.78041952
  Solvation  Ediel_sol  =         0.00000000
  ---------------------------------------------------
  free energy    TOTEN  =      -241.64446719 eV

  energy without entropy =     -241.64446719  energy(sigma->0) =     -241.64446719


--------------------------------------------------------------------------------------------------------




 average (electrostatic) potential at core
  the test charge radii are     0.9748  1.2598  0.9587  0.7215
  (the norm of the test charge is              1.0000)
       1 -25.7547       2 -25.7547       3 -25.7547       4 -25.7547       5 -28.0297
       6 -28.0297       7 -28.0297       8 -28.0297       9 -87.6993      10 -87.6993
      11 -87.6993      12 -87.6993      13 -72.6904      14 -72.6904      15 -72.6904
      16 -72.6904      17 -72.6904      18 -72.6904      19 -72.6904      20 -72.6904
      21 -72.0173      22 -72.0173      23 -72.0173      24 -72.0173      25 -72.7154
      26 -72.7154      27 -72.7154      28 -72.7154      29 -72.7769      30 -72.7768
      31 -72.7768      32 -72.7769
 
 
 
 E-fermi :   1.4860     XC(G=0): -10.0417     alpha+bet :-10.7894

 Fermi energy:         1.4859799155

 spin component 1

 k-point     1 :       0.0000    0.0000    0.0000
  band No.  band energies     occupation 
      1     -19.2071      1.00000
      2     -19.0084      1.00000
      3     -18.9897      1.00000
      4     -18.9567      1.00000
      5     -16.7196      1.00000
      6     -16.6980      1.00000
      7     -16.6224      1.00000
      8     -16.5450      1.00000
      9     -16.5235      1.00000
     10     -16.4943      1.00000
     11     -16.4777      1.00000
     12     -16.4659      1.00000
     13     -16.4563      1.00000
     14     -16.4500      1.00000
     15     -16.4369      1.00000
     16     -16.4255      1.00000
     17     -14.7431      1.00000
     18     -14.7411      1.00000
     19     -14.2791      1.00000
     20     -14.2446      1.00000
     21      -6.9954      1.00000
     22      -6.7335      1.00000
     23      -6.5982      1.00000
     24      -6.2873      1.00000
     25      -4.7627      1.00000
     26      -4.6900      1.00000
     27      -4.6104      1.00000
     28      -4.4694      1.00000
     29      -4.4416      1.00000
     30      -4.1743      1.00000
     31      -4.1600      1.00000
     32      -4.0207      1.00000
     33      -3.9089      1.00000
     34      -3.9004      1.00000
     35      -3.7598      1.00000
     36      -3.6827      1.00000
     37      -2.4575      1.00000
     38      -2.3929      1.00000
     39      -2.3754      1.00000
     40      -2.2480      1.00000
     41      -2.2326      1.00000
     42      -2.1321      1.00000
     43      -1.9662      1.00000
     44      -1.8613      1.00000
     45      -1.7522      1.00000
     46      -1.6604      1.00000
     47      -1.6364      1.00000
     48      -1.4427      1.00000
     49      -1.3301      1.00000
     50      -1.1735      1.00000
     51      -1.1590      1.00000
     52      -1.1223      1.00000
     53      -1.1151      1.00000
     54      -1.0727      1.00000
     55      -0.7252      1.00000
     56      -0.7098      1.00000
     57      -0.5299      1.00000
     58      -0.4445      1.00000
     59      -0.3847      1.00000
     60      -0.2780      1.00000
     61      -0.2343      1.00000
     62      -0.1750      1.00000
     63      -0.1652      1.00000
     64      -0.1562      1.00000
     65       0.1344      1.00000
     66       0.1839      1.00000
     67       0.2154      1.00000
     68       0.2197      1.00000
     69       0.3246      1.00000
     70       0.3359      1.00000
     71       0.3943      1.00000
     72       0.4114      1.00000
     73       0.5167      1.00000
     74       0.6127      1.00000
     75       0.7721      1.00000
     76       0.7836      1.00000
     77       0.8395      1.00000
     78       0.8998      1.00000
     79       1.0369      1.00000
     80       1.1780      1.00000
     81       4.1436      0.00000
     82       4.2772      0.00000
     83       4.4115      0.00000
     84       4.5962      0.00000
     85       4.7089      0.00000
     86       4.7529      0.00000
     87       4.7616      0.00000
     88       4.8106      0.00000
     89       4.8945      0.00000
     90       4.9522      0.00000
     91       5.5293      0.00000
     92       5.5558      0.00000
     93       5.7078      0.00000
     94       5.9401      0.00000
     95       6.2599      0.00000
     96       6.4699      0.00000
     97       6.6175      0.00000
     98       6.7291      0.00000
     99       7.6555      0.00000
    100       7.9904      0.00000
    101       7.9958      0.00000
    102      10.2673      0.00000
    103      10.2864      0.00000
    104      10.5020      0.00000
    105      10.6590      0.00000
    106      10.6690      0.00000
    107      10.8957      0.00000
    108      10.9966      0.00000
    109      11.0176      0.00000
    110      11.3536      0.00000
    111      11.4885      0.00000
    112      11.5637      0.00000
    113      11.7817      0.00000
    114      11.8065      0.00000
    115      11.9797      0.00000
    116      12.2268      0.00000

 k-point     2 :       0.2500    0.0000    0.0000
  band No.  band energies     occupation 
      1     -19.1625      1.00000
      2     -19.0186      1.00000
      3     -18.9655      1.00000
      4     -18.9416      1.00000
      5     -16.7387      1.00000
      6     -16.7126      1.00000
      7     -16.6720      1.00000
      8     -16.5533      1.00000
      9     -16.5371      1.00000
     10     -16.5238      1.00000
     11     -16.4874      1.00000
     12     -16.4680      1.00000
     13     -16.4661      1.00000
     14     -16.4578      1.00000
     15     -16.4447      1.00000
     16     -16.4219      1.00000
     17     -14.7365      1.00000
     18     -14.7340      1.00000
     19     -14.2741      1.00000
     20     -14.2498      1.00000
     21      -6.8573      1.00000
     22      -6.5720      1.00000
     23      -6.5624      1.00000
     24      -6.2017      1.00000
     25      -4.7050      1.00000
     26      -4.6864      1.00000
     27      -4.6630      1.00000
     28      -4.3670      1.00000
     29      -4.3245      1.00000
     30      -4.2402      1.00000
     31      -4.1959      1.00000
     32      -3.9800      1.00000
     33      -3.9071      1.00000
     34      -3.8203      1.00000
     35      -3.6392      1.00000
     36      -3.6047      1.00000
     37      -2.4279      1.00000
     38      -2.4201      1.00000
     39      -2.4141      1.00000
     40      -2.2444      1.00000
     41      -2.1972      1.00000
     42      -2.1145      1.00000
     43      -2.0192      1.00000
     44      -1.9264      1.00000
     45      -1.7887      1.00000
     46      -1.6983      1.00000
     47      -1.6961      1.00000
     48      -1.4629      1.00000
     49      -1.4625      1.00000
     50      -1.3322      1.00000
     51      -1.2997      1.00000
     52      -1.1998      1.00000
     53      -1.1928      1.00000
     54      -0.7642      1.00000
     55      -0.7620      1.00000
     56      -0.7345      1.00000
     57      -0.6335      1.00000
     58      -0.5256      1.00000
     59      -0.3771      1.00000
     60      -0.2896      1.00000
     61      -0.2832      1.00000
     62      -0.2125      1.00000
     63      -0.1716      1.00000
     64      -0.0954      1.00000
     65      -0.0318      1.00000
     66       0.0317      1.00000
     67       0.1680      1.00000
     68       0.2022      1.00000
     69       0.2821      1.00000
     70       0.3156      1.00000
     71       0.3555      1.00000
     72       0.3561      1.00000
     73       0.4965      1.00000
     74       0.5958      1.00000
     75       0.7102      1.00000
     76       0.7962      1.00000
     77       0.8180      1.00000
     78       0.9130      1.00000
     79       0.9963      1.00000
     80       1.0549      1.00000
     81       4.1610      0.00000
     82       4.2770      0.00000
     83       4.3274      0.00000
     84       4.4877      0.00000
     85       4.6043      0.00000
     86       4.7444      0.00000
     87       4.7784      0.00000
     88       4.8034      0.00000
     89       4.8135      0.00000
     90       4.9415      0.00000
     91       5.4512      0.00000
     92       5.4857      0.00000
     93       6.1272      0.00000
     94       6.3043      0.00000
     95       6.5451      0.00000
     96       6.5592      0.00000
     97       6.7779      0.00000
     98       6.8107      0.00000
     99       7.8517      0.00000
    100       8.0691      0.00000
    101       8.3359      0.00000
    102      10.1986      0.00000
    103      10.2849      0.00000
    104      10.3509      0.00000
    105      10.6717      0.00000
    106      10.7953      0.00000
    107      10.9815      0.00000
    108      11.0733      0.00000
    109      11.1161      0.00000
    110      11.3006      0.00000
    111      11.4331      0.00000
    112      11.5653      0.00000
    113      11.8705      0.00000
    114      11.9174      0.00000
    115      11.9578      0.00000
    116      12.0438      0.00000

 k-point     3 :       0.5000    0.0000    0.0000
  band No.  band energies     occupation 
      1     -19.0732      1.00000
      2     -19.0732      1.00000
      3     -18.9333      1.00000
      4     -18.9333      1.00000
      5     -16.7264      1.00000
      6     -16.7264      1.00000
      7     -16.6964      1.00000
      8     -16.6964      1.00000
      9     -16.5235      1.00000
     10     -16.5235      1.00000
     11     -16.4737      1.00000
     12     -16.4737      1.00000
     13     -16.4708      1.00000
     14     -16.4708      1.00000
     15     -16.4351      1.00000
     16     -16.4351      1.00000
     17     -14.7288      1.00000
     18     -14.7288      1.00000
     19     -14.2621      1.00000
     20     -14.2621      1.00000
     21      -6.6352      1.00000
     22      -6.6352      1.00000
     23      -6.2574      1.00000
     24      -6.2574      1.00000
     25      -4.7269      1.00000
     26      -4.7269      1.00000
     27      -4.4286      1.00000
     28      -4.4286      1.00000
     29      -4.2017      1.00000
     30      -4.2017      1.00000
     31      -4.0782      1.00000
     32      -4.0782      1.00000
     33      -3.6941      1.00000
     34      -3.6941      1.00000
     35      -3.6811      1.00000
     36      -3.6811      1.00000
     37      -2.4209      1.00000
     38      -2.4209      1.00000
     39      -2.3649      1.00000
     40      -2.3649      1.00000
     41      -2.1855      1.00000
     42      -2.1855      1.00000
     43      -2.0021      1.00000
     44      -2.0021      1.00000
     45      -1.6946      1.00000
     46      -1.6946      1.00000
     47      -1.6395      1.00000
     48      -1.6395      1.00000
     49      -1.5546      1.00000
     50      -1.5546      1.00000
     51      -1.4530      1.00000
     52      -1.4530      1.00000
     53      -0.8311      1.00000
     54      -0.8311      1.00000
     55      -0.8165      1.00000
     56      -0.8165      1.00000
     57      -0.7346      1.00000
     58      -0.7346      1.00000
     59      -0.3346      1.00000
     60      -0.3346      1.00000
     61      -0.2838      1.00000
     62      -0.2838      1.00000
     63      -0.2085      1.00000
     64      -0.2085      1.00000
     65       0.0717      1.00000
     66       0.0717      1.00000
     67       0.0872      1.00000
     68       0.0872      1.00000
     69       0.2786      1.00000
     70       0.2786      1.00000
     71       0.3285      1.00000
     72       0.3285      1.00000
     73       0.5478      1.00000
     74       0.5478      1.00000
     75       0.7860      1.00000
     76       0.7860      1.00000
     77       0.8897      1.00000
     78       0.8897      1.00000
     79       0.9047      1.00000
     80       0.9047      1.00000
     81       4.2623      0.00000
     82       4.2623      0.00000
     83       4.2805      0.00000
     84       4.2805      0.00000
     85       4.5618      0.00000
     86       4.5618      0.00000
     87       4.8038      0.00000
     88       4.8038      0.00000
     89       4.8886      0.00000
     90       4.8887      0.00000
     91       5.4113      0.00000
     92       5.4113      0.00000
     93       6.5315      0.00000
     94       6.5315      0.00000
     95       6.6910      0.00000
     96       6.6910      0.00000
     97       6.9424      0.00000
     98       6.9424      0.00000
     99       8.1451      0.00000
    100       8.1451      0.00000
    101       9.2454      0.00000
    102       9.2454      0.00000
    103      10.3404      0.00000
    104      10.3404      0.00000
    105      10.8537      0.00000
    106      10.8538      0.00000
    107      11.1207      0.00000
    108      11.1207      0.00000
    109      11.1820      0.00000
    110      11.1820      0.00000
    111      11.5623      0.00000
    112      11.5623      0.00000
    113      11.8022      0.00000
    114      11.8022      0.00000
    115      12.1657      0.00000
    116      12.1658      0.00000

 k-point     4 :       0.0000    0.3333    0.0000
  band No.  band energies     occupation 
      1     -19.1596      1.00000
      2     -19.0599      1.00000
      3     -18.9804      1.00000
      4     -18.9634      1.00000
      5     -16.7318      1.00000
      6     -16.6586      1.00000
      7     -16.6132      1.00000
      8     -16.5630      1.00000
      9     -16.5284      1.00000
     10     -16.4940      1.00000
     11     -16.4899      1.00000
     12     -16.4762      1.00000
     13     -16.4468      1.00000
     14     -16.4441      1.00000
     15     -16.4424      1.00000
     16     -16.4370      1.00000
     17     -14.7363      1.00000
     18     -14.7346      1.00000
     19     -14.2713      1.00000
     20     -14.2539      1.00000
     21      -6.8968      1.00000
     22      -6.6607      1.00000
     23      -6.6314      1.00000
     24      -6.4507      1.00000
     25      -4.6997      1.00000
     26      -4.6561      1.00000
     27      -4.4679      1.00000
     28      -4.3714      1.00000
     29      -4.3401      1.00000
     30      -4.2363      1.00000
     31      -4.1905      1.00000
     32      -4.0564      1.00000
     33      -4.0041      1.00000
     34      -3.9591      1.00000
     35      -3.9442      1.00000
     36      -3.8202      1.00000
     37      -2.5089      1.00000
     38      -2.3675      1.00000
     39      -2.3242      1.00000
     40      -2.2766      1.00000
     41      -2.2401      1.00000
     42      -2.2262      1.00000
     43      -1.8412      1.00000
     44      -1.7369      1.00000
     45      -1.6994      1.00000
     46      -1.5123      1.00000
     47      -1.5029      1.00000
     48      -1.3691      1.00000
     49      -1.3669      1.00000
     50      -1.3532      1.00000
     51      -1.1497      1.00000
     52      -1.1279      1.00000
     53      -1.0780      1.00000
     54      -0.8859      1.00000
     55      -0.8383      1.00000
     56      -0.6638      1.00000
     57      -0.6235      1.00000
     58      -0.5418      1.00000
     59      -0.4610      1.00000
     60      -0.4237      1.00000
     61      -0.1966      1.00000
     62      -0.1674      1.00000
     63      -0.0768      1.00000
     64       0.0266      1.00000
     65       0.0291      1.00000
     66       0.1465      1.00000
     67       0.1498      1.00000
     68       0.2660      1.00000
     69       0.2969      1.00000
     70       0.3189      1.00000
     71       0.3491      1.00000
     72       0.4069      1.00000
     73       0.5047      1.00000
     74       0.5080      1.00000
     75       0.5980      1.00000
     76       0.7397      1.00000
     77       0.9006      1.00000
     78       0.9057      1.00000
     79       1.2277      1.00000
     80       1.2482      1.00000
     81       4.1673      0.00000
     82       4.2435      0.00000
     83       4.4876      0.00000
     84       4.5838      0.00000
     85       4.7492      0.00000
     86       4.7675      0.00000
     87       4.7874      0.00000
     88       4.7921      0.00000
     89       4.8467      0.00000
     90       4.8871      0.00000
     91       5.5402      0.00000
     92       5.5538      0.00000
     93       5.8481      0.00000
     94       5.9553      0.00000
     95       6.2752      0.00000
     96       6.3970      0.00000
     97       6.6361      0.00000
     98       6.6906      0.00000
     99       7.7406      0.00000
    100       7.9111      0.00000
    101       8.4343      0.00000
    102       9.4936      0.00000
    103      10.5005      0.00000
    104      10.6446      0.00000
    105      10.6668      0.00000
    106      10.7204      0.00000
    107      10.7798      0.00000
    108      10.9577      0.00000
    109      11.2815      0.00000
    110      11.3065      0.00000
    111      11.3476      0.00000
    112      11.4208      0.00000
    113      11.5674      0.00000
    114      11.8524      0.00000
    115      11.9534      0.00000
    116      12.0628      0.00000

 k-point     5 :       0.2500    0.3333    0.0000
  band No.  band energies     occupation 
      1     -19.1197      1.00000
      2     -19.0368      1.00000
      3     -18.9774      1.00000
      4     -18.9544      1.00000
      5     -16.7483      1.00000
      6     -16.6962      1.00000
      7     -16.6565      1.00000
      8     -16.6105      1.00000
      9     -16.5212      1.00000
     10     -16.5046      1.00000
     11     -16.4942      1.00000
     12     -16.4838      1.00000
     13     -16.4584      1.00000
     14     -16.4538      1.00000
     15     -16.4362      1.00000
     16     -16.4302      1.00000
     17     -14.7293      1.00000
     18     -14.7277      1.00000
     19     -14.2692      1.00000
     20     -14.2570      1.00000
     21      -6.7676      1.00000
     22      -6.5921      1.00000
     23      -6.5029      1.00000
     24      -6.3629      1.00000
     25      -4.6792      1.00000
     26      -4.6608      1.00000
     27      -4.4479      1.00000
     28      -4.2955      1.00000
     29      -4.2751      1.00000
     30      -4.2128      1.00000
     31      -4.1674      1.00000
     32      -4.0567      1.00000
     33      -4.0122      1.00000
     34      -3.8631      1.00000
     35      -3.8426      1.00000
     36      -3.7579      1.00000
     37      -2.4780      1.00000
     38      -2.4041      1.00000
     39      -2.2942      1.00000
     40      -2.2929      1.00000
     41      -2.1552      1.00000
     42      -2.1171      1.00000
     43      -1.9355      1.00000
     44      -1.9255      1.00000
     45      -1.8130      1.00000
     46      -1.7054      1.00000
     47      -1.6391      1.00000
     48      -1.5296      1.00000
     49      -1.3940      1.00000
     50      -1.3144      1.00000
     51      -1.2266      1.00000
     52      -1.2171      1.00000
     53      -1.0956      1.00000
     54      -0.9076      1.00000
     55      -0.8254      1.00000
     56      -0.7081      1.00000
     57      -0.7070      1.00000
     58      -0.6537      1.00000
     59      -0.2703      1.00000
     60      -0.2449      1.00000
     61      -0.1824      1.00000
     62      -0.1759      1.00000
     63      -0.1229      1.00000
     64      -0.1215      1.00000
     65       0.0307      1.00000
     66       0.0631      1.00000
     67       0.1341      1.00000
     68       0.1380      1.00000
     69       0.2461      1.00000
     70       0.2624      1.00000
     71       0.2967      1.00000
     72       0.3207      1.00000
     73       0.4109      1.00000
     74       0.5363      1.00000
     75       0.6709      1.00000
     76       0.7528      1.00000
     77       0.8827      1.00000
     78       0.9333      1.00000
     79       1.1143      1.00000
     80       1.1294      1.00000
     81       4.1790      0.00000
     82       4.2464      0.00000
     83       4.3886      0.00000
     84       4.4751      0.00000
     85       4.6181      0.00000
     86       4.7028      0.00000
     87       4.7876      0.00000
     88       4.8090      0.00000
     89       4.8231      0.00000
     90       4.8936      0.00000
     91       5.4659      0.00000
     92       5.4841      0.00000
     93       6.2398      0.00000
     94       6.3190      0.00000
     95       6.5542      0.00000
     96       6.5778      0.00000
     97       6.7553      0.00000
     98       6.7731      0.00000
     99       7.8985      0.00000
    100       8.0078      0.00000
    101       8.7148      0.00000
    102       9.6202      0.00000
    103      10.3478      0.00000
    104      10.4119      0.00000
    105      10.6139      0.00000
    106      10.7638      0.00000
    107      10.9900      0.00000
    108      11.0586      0.00000
    109      11.1768      0.00000
    110      11.2780      0.00000
    111      11.3985      0.00000
    112      11.4494      0.00000
    113      11.7714      0.00000
    114      11.7845      0.00000
    115      11.9225      0.00000
    116      12.0899      0.00000

 k-point     6 :       0.5000    0.3333    0.0000
  band No.  band energies     occupation 
      1     -19.0469      1.00000
      2     -19.0469      1.00000
      3     -18.9590      1.00000
      4     -18.9590      1.00000
      5     -16.7237      1.00000
      6     -16.7237      1.00000
      7     -16.7138      1.00000
      8     -16.7138      1.00000
      9     -16.5138      1.00000
     10     -16.5138      1.00000
     11     -16.4812      1.00000
     12     -16.4812      1.00000
     13     -16.4647      1.00000
     14     -16.4647      1.00000
     15     -16.4342      1.00000
     16     -16.4342      1.00000
     17     -14.7219      1.00000
     18     -14.7219      1.00000
     19     -14.2636      1.00000
     20     -14.2636      1.00000
     21      -6.5836      1.00000
     22      -6.5836      1.00000
     23      -6.3239      1.00000
     24      -6.3239      1.00000
     25      -4.6640      1.00000
     26      -4.6639      1.00000
     27      -4.3256      1.00000
     28      -4.3256      1.00000
     29      -4.1441      1.00000
     30      -4.1441      1.00000
     31      -4.0946      1.00000
     32      -4.0946      1.00000
     33      -3.8540      1.00000
     34      -3.8540      1.00000
     35      -3.7709      1.00000
     36      -3.7709      1.00000
     37      -2.3785      1.00000
     38      -2.3785      1.00000
     39      -2.2912      1.00000
     40      -2.2912      1.00000
     41      -2.1942      1.00000
     42      -2.1942      1.00000
     43      -2.0066      1.00000
     44      -2.0066      1.00000
     45      -1.8618      1.00000
     46      -1.8618      1.00000
     47      -1.7277      1.00000
     48      -1.7277      1.00000
     49      -1.4403      1.00000
     50      -1.4403      1.00000
     51      -1.3042      1.00000
     52      -1.3042      1.00000
     53      -0.9960      1.00000
     54      -0.9960      1.00000
     55      -0.8894      1.00000
     56      -0.8894      1.00000
     57      -0.7059      1.00000
     58      -0.7059      1.00000
     59      -0.3511      1.00000
     60      -0.3511      1.00000
     61      -0.1422      1.00000
     62      -0.1422      1.00000
     63      -0.1314      1.00000
     64      -0.1314      1.00000
     65       0.0296      1.00000
     66       0.0296      1.00000
     67       0.1765      1.00000
     68       0.1765      1.00000
     69       0.2681      1.00000
     70       0.2681      1.00000
     71       0.3350      1.00000
     72       0.3350      1.00000
     73       0.4165      1.00000
     74       0.4165      1.00000
     75       0.7558      1.00000
     76       0.7558      1.00000
     77       0.8148      1.00000
     78       0.8148      1.00000
     79       1.0584      1.00000
     80       1.0584      1.00000
     81       4.2712      0.00000
     82       4.2712      0.00000
     83       4.2862      0.00000
     84       4.2862      0.00000
     85       4.5405      0.00000
     86       4.5405      0.00000
     87       4.8048      0.00000
     88       4.8049      0.00000
     89       4.8735      0.00000
     90       4.8735      0.00000
     91       5.4216      0.00000
     92       5.4216      0.00000
     93       6.5675      0.00000
     94       6.5675      0.00000
     95       6.7113      0.00000
     96       6.7113      0.00000
     97       6.9494      0.00000
     98       6.9494      0.00000
     99       8.1327      0.00000
    100       8.1327      0.00000
    101       9.4354      0.00000
    102       9.4354      0.00000
    103      10.1087      0.00000
    104      10.1087      0.00000
    105      10.6250      0.00000
    106      10.6250      0.00000
    107      11.1953      0.00000
    108      11.1953      0.00000
    109      11.3249      0.00000
    110      11.3249      0.00000
    111      11.4104      0.00000
    112      11.4104      0.00000
    113      11.7187      0.00000
    114      11.7187      0.00000
    115      12.0707      0.00000
    116      12.0707      0.00000

 k-point     7 :       0.0000    0.0000    0.3333
  band No.  band energies     occupation 
      1     -19.1632      1.00000
      2     -19.0625      1.00000
      3     -18.9872      1.00000
      4     -18.9534      1.00000
      5     -16.7101      1.00000
      6     -16.6993      1.00000
      7     -16.5805      1.00000
      8     -16.5277      1.00000
      9     -16.5078      1.00000
     10     -16.5035      1.00000
     11     -16.4838      1.00000
     12     -16.4772      1.00000
     13     -16.4618      1.00000
     14     -16.4614      1.00000
     15     -16.4583      1.00000
     16     -16.4436      1.00000
     17     -14.6355      1.00000
     18     -14.6186      1.00000
     19     -14.4044      1.00000
     20     -14.3706      1.00000
     21      -6.9409      1.00000
     22      -6.8138      1.00000
     23      -6.5157      1.00000
     24      -6.3579      1.00000
     25      -4.7075      1.00000
     26      -4.6707      1.00000
     27      -4.4368      1.00000
     28      -4.4071      1.00000
     29      -4.3570      1.00000
     30      -4.2580      1.00000
     31      -4.2175      1.00000
     32      -4.0979      1.00000
     33      -4.0812      1.00000
     34      -4.0430      1.00000
     35      -3.7186      1.00000
     36      -3.6852      1.00000
     37      -2.2784      1.00000
     38      -2.2761      1.00000
     39      -2.2035      1.00000
     40      -2.0668      1.00000
     41      -2.0528      1.00000
     42      -2.0302      1.00000
     43      -2.0061      1.00000
     44      -1.9032      1.00000
     45      -1.7075      1.00000
     46      -1.6618      1.00000
     47      -1.5537      1.00000
     48      -1.4109      1.00000
     49      -1.3618      1.00000
     50      -1.2942      1.00000
     51      -1.1482      1.00000
     52      -1.1321      1.00000
     53      -1.0195      1.00000
     54      -1.0132      1.00000
     55      -1.0017      1.00000
     56      -0.7460      1.00000
     57      -0.7267      1.00000
     58      -0.7141      1.00000
     59      -0.5946      1.00000
     60      -0.4038      1.00000
     61      -0.3430      1.00000
     62      -0.1599      1.00000
     63      -0.1029      1.00000
     64       0.0090      1.00000
     65       0.0156      1.00000
     66       0.0345      1.00000
     67       0.1013      1.00000
     68       0.1474      1.00000
     69       0.2424      1.00000
     70       0.2924      1.00000
     71       0.4739      1.00000
     72       0.5414      1.00000
     73       0.5718      1.00000
     74       0.6803      1.00000
     75       0.7500      1.00000
     76       0.8258      1.00000
     77       0.8528      1.00000
     78       0.8761      1.00000
     79       1.0021      1.00000
     80       1.1832      1.00000
     81       4.1687      0.00000
     82       4.2260      0.00000
     83       4.5458      0.00000
     84       4.6039      0.00000
     85       4.8651      0.00000
     86       4.9141      0.00000
     87       4.9532      0.00000
     88       4.9750      0.00000
     89       5.0005      0.00000
     90       5.1284      0.00000
     91       5.3027      0.00000
     92       5.3565      0.00000
     93       5.7665      0.00000
     94       5.8761      0.00000
     95       6.3256      0.00000
     96       6.4166      0.00000
     97       6.6357      0.00000
     98       6.9656      0.00000
     99       7.2265      0.00000
    100       7.6519      0.00000
    101       8.5081      0.00000
    102       9.5380      0.00000
    103      10.5594      0.00000
    104      10.6300      0.00000
    105      10.6751      0.00000
    106      10.6759      0.00000
    107      11.0822      0.00000
    108      11.1084      0.00000
    109      11.2774      0.00000
    110      11.2776      0.00000
    111      11.3728      0.00000
    112      11.4416      0.00000
    113      11.6975      0.00000
    114      11.7271      0.00000
    115      12.0886      0.00000
    116      12.2354      0.00000

 k-point     8 :       0.2500    0.0000    0.3333
  band No.  band energies     occupation 
      1     -19.1212      1.00000
      2     -19.0286      1.00000
      3     -18.9937      1.00000
      4     -18.9495      1.00000
      5     -16.7280      1.00000
      6     -16.7158      1.00000
      7     -16.6279      1.00000
      8     -16.5653      1.00000
      9     -16.5318      1.00000
     10     -16.5075      1.00000
     11     -16.5027      1.00000
     12     -16.4831      1.00000
     13     -16.4699      1.00000
     14     -16.4664      1.00000
     15     -16.4463      1.00000
     16     -16.4375      1.00000
     17     -14.6283      1.00000
     18     -14.6159      1.00000
     19     -14.3979      1.00000
     20     -14.3741      1.00000
     21      -6.7942      1.00000
     22      -6.6503      1.00000
     23      -6.4820      1.00000
     24      -6.2968      1.00000
     25      -4.6637      1.00000
     26      -4.6302      1.00000
     27      -4.5033      1.00000
     28      -4.3134      1.00000
     29      -4.2924      1.00000
     30      -4.2604      1.00000
     31      -4.2176      1.00000
     32      -4.1099      1.00000
     33      -3.9906      1.00000
     34      -3.9894      1.00000
     35      -3.6435      1.00000
     36      -3.6259      1.00000
     37      -2.3142      1.00000
     38      -2.2711      1.00000
     39      -2.1764      1.00000
     40      -2.0976      1.00000
     41      -2.0899      1.00000
     42      -1.9658      1.00000
     43      -1.9566      1.00000
     44      -1.8361      1.00000
     45      -1.7993      1.00000
     46      -1.6799      1.00000
     47      -1.5292      1.00000
     48      -1.5127      1.00000
     49      -1.4720      1.00000
     50      -1.4247      1.00000
     51      -1.2824      1.00000
     52      -1.2376      1.00000
     53      -1.1331      1.00000
     54      -1.0769      1.00000
     55      -1.0568      1.00000
     56      -0.9291      1.00000
     57      -0.7106      1.00000
     58      -0.6785      1.00000
     59      -0.5437      1.00000
     60      -0.3519      1.00000
     61      -0.3512      1.00000
     62      -0.1811      1.00000
     63      -0.1550      1.00000
     64      -0.0874      1.00000
     65      -0.0522      1.00000
     66       0.0005      1.00000
     67       0.1010      1.00000
     68       0.1089      1.00000
     69       0.3154      1.00000
     70       0.3590      1.00000
     71       0.4621      1.00000
     72       0.5171      1.00000
     73       0.5237      1.00000
     74       0.5560      1.00000
     75       0.6503      1.00000
     76       0.7124      1.00000
     77       0.8599      1.00000
     78       0.8714      1.00000
     79       0.9477      1.00000
     80       1.0637      1.00000
     81       4.1890      0.00000
     82       4.2423      0.00000
     83       4.4597      0.00000
     84       4.5001      0.00000
     85       4.7822      0.00000
     86       4.8604      0.00000
     87       4.8926      0.00000
     88       4.9495      0.00000
     89       5.0248      0.00000
     90       5.1244      0.00000
     91       5.2144      0.00000
     92       5.2545      0.00000
     93       6.1767      0.00000
     94       6.2615      0.00000
     95       6.5628      0.00000
     96       6.5780      0.00000
     97       6.8604      0.00000
     98       6.9997      0.00000
     99       7.4276      0.00000
    100       7.6996      0.00000
    101       8.7969      0.00000
    102       9.7335      0.00000
    103      10.3584      0.00000
    104      10.5312      0.00000
    105      10.7194      0.00000
    106      10.8161      0.00000
    107      10.9499      0.00000
    108      11.1214      0.00000
    109      11.2924      0.00000
    110      11.3161      0.00000
    111      11.3813      0.00000
    112      11.3892      0.00000
    113      11.7057      0.00000
    114      11.8687      0.00000
    115      12.1089      0.00000
    116      12.1776      0.00000

 k-point     9 :       0.5000    0.0000    0.3333
  band No.  band energies     occupation 
      1     -19.0395      1.00000
      2     -19.0395      1.00000
      3     -18.9697      1.00000
      4     -18.9697      1.00000
      5     -16.7079      1.00000
      6     -16.7079      1.00000
      7     -16.6936      1.00000
      8     -16.6936      1.00000
      9     -16.5220      1.00000
     10     -16.5220      1.00000
     11     -16.4949      1.00000
     12     -16.4949      1.00000
     13     -16.4612      1.00000
     14     -16.4612      1.00000
     15     -16.4451      1.00000
     16     -16.4451      1.00000
     17     -14.6175      1.00000
     18     -14.6175      1.00000
     19     -14.3846      1.00000
     20     -14.3846      1.00000
     21      -6.5508      1.00000
     22      -6.5508      1.00000
     23      -6.3651      1.00000
     24      -6.3651      1.00000
     25      -4.6027      1.00000
     26      -4.6027      1.00000
     27      -4.4420      1.00000
     28      -4.4420      1.00000
     29      -4.1824      1.00000
     30      -4.1824      1.00000
     31      -4.1172      1.00000
     32      -4.1172      1.00000
     33      -3.7674      1.00000
     34      -3.7674      1.00000
     35      -3.7515      1.00000
     36      -3.7515      1.00000
     37      -2.2660      1.00000
     38      -2.2660      1.00000
     39      -2.2189      1.00000
     40      -2.2189      1.00000
     41      -2.0419      1.00000
     42      -2.0419      1.00000
     43      -1.8393      1.00000
     44      -1.8393      1.00000
     45      -1.8214      1.00000
     46      -1.8214      1.00000
     47      -1.6091      1.00000
     48      -1.6091      1.00000
     49      -1.4744      1.00000
     50      -1.4744      1.00000
     51      -1.3030      1.00000
     52      -1.3030      1.00000
     53      -1.1586      1.00000
     54      -1.1586      1.00000
     55      -0.9872      1.00000
     56      -0.9872      1.00000
     57      -0.9613      1.00000
     58      -0.9613      1.00000
     59      -0.5663      1.00000
     60      -0.5663      1.00000
     61      -0.3096      1.00000
     62      -0.3096      1.00000
     63      -0.1273      1.00000
     64      -0.1273      1.00000
     65       0.0889      1.00000
     66       0.0889      1.00000
     67       0.2068      1.00000
     68       0.2068      1.00000
     69       0.3019      1.00000
     70       0.3019      1.00000
     71       0.3497      1.00000
     72       0.3497      1.00000
     73       0.6134      1.00000
     74       0.6134      1.00000
     75       0.7380      1.00000
     76       0.7380      1.00000
     77       0.7575      1.00000
     78       0.7575      1.00000
     79       0.8928      1.00000
     80       0.8928      1.00000
     81       4.3054      0.00000
     82       4.3054      0.00000
     83       4.3253      0.00000
     84       4.3253      0.00000
     85       4.7002      0.00000
     86       4.7002      0.00000
     87       4.9303      0.00000
     88       4.9303      0.00000
     89       5.0909      0.00000
     90       5.0909      0.00000
     91       5.1581      0.00000
     92       5.1581      0.00000
     93       6.5734      0.00000
     94       6.5734      0.00000
     95       6.6700      0.00000
     96       6.6700      0.00000
     97       7.1012      0.00000
     98       7.1012      0.00000
     99       7.7383      0.00000
    100       7.7383      0.00000
    101       9.5636      0.00000
    102       9.5636      0.00000
    103      10.1723      0.00000
    104      10.1723      0.00000
    105      10.8626      0.00000
    106      10.8626      0.00000
    107      11.0095      0.00000
    108      11.0095      0.00000
    109      11.2760      0.00000
    110      11.2760      0.00000
    111      11.3982      0.00000
    112      11.3982      0.00000
    113      11.9681      0.00000
    114      11.9681      0.00000
    115      12.0583      0.00000
    116      12.0583      0.00000

 k-point    10 :       0.0000    0.3333    0.3333
  band No.  band energies     occupation 
      1     -19.1318      1.00000
      2     -19.0786      1.00000
      3     -18.9844      1.00000
      4     -18.9685      1.00000
      5     -16.7261      1.00000
      6     -16.6921      1.00000
      7     -16.6006      1.00000
      8     -16.5707      1.00000
      9     -16.5182      1.00000
     10     -16.4984      1.00000
     11     -16.4812      1.00000
     12     -16.4718      1.00000
     13     -16.4503      1.00000
     14     -16.4468      1.00000
     15     -16.4441      1.00000
     16     -16.4269      1.00000
     17     -14.6281      1.00000
     18     -14.6194      1.00000
     19     -14.3939      1.00000
     20     -14.3770      1.00000
     21      -6.8463      1.00000
     22      -6.7233      1.00000
     23      -6.6020      1.00000
     24      -6.4990      1.00000
     25      -4.6923      1.00000
     26      -4.6623      1.00000
     27      -4.4083      1.00000
     28      -4.3216      1.00000
     29      -4.2925      1.00000
     30      -4.2130      1.00000
     31      -4.1756      1.00000
     32      -4.1732      1.00000
     33      -4.0032      1.00000
     34      -3.9731      1.00000
     35      -3.9113      1.00000
     36      -3.8414      1.00000
     37      -2.3273      1.00000
     38      -2.2194      1.00000
     39      -2.1906      1.00000
     40      -2.1434      1.00000
     41      -2.1012      1.00000
     42      -2.0334      1.00000
     43      -1.8535      1.00000
     44      -1.7445      1.00000
     45      -1.7423      1.00000
     46      -1.6042      1.00000
     47      -1.5298      1.00000
     48      -1.4971      1.00000
     49      -1.3808      1.00000
     50      -1.3528      1.00000
     51      -1.3318      1.00000
     52      -1.2192      1.00000
     53      -1.1563      1.00000
     54      -0.9218      1.00000
     55      -0.8213      1.00000
     56      -0.7557      1.00000
     57      -0.7079      1.00000
     58      -0.7026      1.00000
     59      -0.4720      1.00000
     60      -0.4712      1.00000
     61      -0.3602      1.00000
     62      -0.2742      1.00000
     63      -0.1142      1.00000
     64      -0.0834      1.00000
     65       0.0066      1.00000
     66       0.0341      1.00000
     67       0.2072      1.00000
     68       0.2533      1.00000
     69       0.2544      1.00000
     70       0.3046      1.00000
     71       0.4837      1.00000
     72       0.5605      1.00000
     73       0.5777      1.00000
     74       0.6123      1.00000
     75       0.7008      1.00000
     76       0.7364      1.00000
     77       0.8500      1.00000
     78       0.8575      1.00000
     79       1.1528      1.00000
     80       1.2246      1.00000
     81       4.1946      0.00000
     82       4.2330      0.00000
     83       4.5414      0.00000
     84       4.5853      0.00000
     85       4.8649      0.00000
     86       4.9022      0.00000
     87       4.9302      0.00000
     88       4.9756      0.00000
     89       5.0103      0.00000
     90       5.0803      0.00000
     91       5.3257      0.00000
     92       5.3519      0.00000
     93       5.8747      0.00000
     94       5.9259      0.00000
     95       6.3062      0.00000
     96       6.3600      0.00000
     97       6.7190      0.00000
     98       6.8744      0.00000
     99       7.3425      0.00000
    100       7.5475      0.00000
    101       8.8764      0.00000
    102       9.5023      0.00000
    103      10.3643      0.00000
    104      10.4959      0.00000
    105      10.6900      0.00000
    106      10.7166      0.00000
    107      11.0367      0.00000
    108      11.1358      0.00000
    109      11.2834      0.00000
    110      11.3277      0.00000
    111      11.3488      0.00000
    112      11.4244      0.00000
    113      11.4470      0.00000
    114      11.7146      0.00000
    115      11.9565      0.00000
    116      12.1082      0.00000

 k-point    11 :       0.2500    0.3333    0.3333
  band No.  band energies     occupation 
      1     -19.0936      1.00000
      2     -19.0459      1.00000
      3     -18.9845      1.00000
      4     -18.9643      1.00000
      5     -16.7458      1.00000
      6     -16.7201      1.00000
      7     -16.6455      1.00000
      8     -16.6210      1.00000
      9     -16.5170      1.00000
     10     -16.5000      1.00000
     11     -16.4897      1.00000
     12     -16.4783      1.00000
     13     -16.4621      1.00000
     14     -16.4594      1.00000
     15     -16.4338      1.00000
     16     -16.4227      1.00000
     17     -14.6214      1.00000
     18     -14.6149      1.00000
     19     -14.3907      1.00000
     20     -14.3787      1.00000
     21      -6.7169      1.00000
     22      -6.5931      1.00000
     23      -6.5354      1.00000
     24      -6.4231      1.00000
     25      -4.6419      1.00000
     26      -4.6345      1.00000
     27      -4.3750      1.00000
     28      -4.3043      1.00000
     29      -4.2458      1.00000
     30      -4.2333      1.00000
     31      -4.1900      1.00000
     32      -4.0876      1.00000
     33      -4.0072      1.00000
     34      -3.9134      1.00000
     35      -3.7664      1.00000
     36      -3.7551      1.00000
     37      -2.3253      1.00000
     38      -2.2394      1.00000
     39      -2.1927      1.00000
     40      -2.1405      1.00000
     41      -2.0561      1.00000
     42      -2.0155      1.00000
     43      -1.9817      1.00000
     44      -1.8570      1.00000
     45      -1.7992      1.00000
     46      -1.7108      1.00000
     47      -1.5665      1.00000
     48      -1.5527      1.00000
     49      -1.4427      1.00000
     50      -1.3654      1.00000
     51      -1.3438      1.00000
     52      -1.3184      1.00000
     53      -1.2013      1.00000
     54      -1.1778      1.00000
     55      -0.9305      1.00000
     56      -0.8599      1.00000
     57      -0.7105      1.00000
     58      -0.6580      1.00000
     59      -0.5369      1.00000
     60      -0.4477      1.00000
     61      -0.2335      1.00000
     62      -0.1665      1.00000
     63      -0.1414      1.00000
     64      -0.0328      1.00000
     65       0.0181      1.00000
     66       0.0505      1.00000
     67       0.0797      1.00000
     68       0.1809      1.00000
     69       0.2595      1.00000
     70       0.3346      1.00000
     71       0.3803      1.00000
     72       0.4497      1.00000
     73       0.5505      1.00000
     74       0.5571      1.00000
     75       0.6412      1.00000
     76       0.7004      1.00000
     77       0.8227      1.00000
     78       0.8975      1.00000
     79       1.0557      1.00000
     80       1.0945      1.00000
     81       4.2101      0.00000
     82       4.2463      0.00000
     83       4.4504      0.00000
     84       4.4910      0.00000
     85       4.7875      0.00000
     86       4.8208      0.00000
     87       4.9069      0.00000
     88       4.9277      0.00000
     89       5.0280      0.00000
     90       5.0757      0.00000
     91       5.2416      0.00000
     92       5.2623      0.00000
     93       6.2634      0.00000
     94       6.3014      0.00000
     95       6.5664      0.00000
     96       6.5836      0.00000
     97       6.8681      0.00000
     98       6.9438      0.00000
     99       7.4888      0.00000
    100       7.6230      0.00000
    101       9.1194      0.00000
    102       9.6886      0.00000
    103      10.2858      0.00000
    104      10.4335      0.00000
    105      10.6482      0.00000
    106      10.7724      0.00000
    107      10.9439      0.00000
    108      11.0198      0.00000
    109      11.2224      0.00000
    110      11.3122      0.00000
    111      11.4047      0.00000
    112      11.4770      0.00000
    113      11.6195      0.00000
    114      11.8412      0.00000
    115      12.0233      0.00000
    116      12.0909      0.00000

 k-point    12 :       0.5000    0.3333    0.3333
  band No.  band energies     occupation 
      1     -19.0249      1.00000
      2     -19.0249      1.00000
      3     -18.9809      1.00000
      4     -18.9809      1.00000
      5     -16.7295      1.00000
      6     -16.7295      1.00000
      7     -16.7175      1.00000
      8     -16.7175      1.00000
      9     -16.5090      1.00000
     10     -16.5090      1.00000
     11     -16.4848      1.00000
     12     -16.4848      1.00000
     13     -16.4574      1.00000
     14     -16.4574      1.00000
     15     -16.4339      1.00000
     16     -16.4339      1.00000
     17     -14.6127      1.00000
     18     -14.6127      1.00000
     19     -14.3839      1.00000
     20     -14.3839      1.00000
     21      -6.5314      1.00000
     22      -6.5314      1.00000
     23      -6.4047      1.00000
     24      -6.4047      1.00000
     25      -4.5651      1.00000
     26      -4.5651      1.00000
     27      -4.3981      1.00000
     28      -4.3981      1.00000
     29      -4.1207      1.00000
     30      -4.1207      1.00000
     31      -4.0972      1.00000
     32      -4.0972      1.00000
     33      -3.8467      1.00000
     34      -3.8467      1.00000
     35      -3.7443      1.00000
     36      -3.7443      1.00000
     37      -2.2923      1.00000
     38      -2.2923      1.00000
     39      -2.2297      1.00000
     40      -2.2297      1.00000
     41      -2.0569      1.00000
     42      -2.0569      1.00000
     43      -1.9203      1.00000
     44      -1.9203      1.00000
     45      -1.8332      1.00000
     46      -1.8332      1.00000
     47      -1.6513      1.00000
     48      -1.6513      1.00000
     49      -1.5270      1.00000
     50      -1.5270      1.00000
     51      -1.3577      1.00000
     52      -1.3577      1.00000
     53      -1.2524      1.00000
     54      -1.2524      1.00000
     55      -1.0156      1.00000
     56      -1.0156      1.00000
     57      -0.7232      1.00000
     58      -0.7232      1.00000
     59      -0.6096      1.00000
     60      -0.6096      1.00000
     61      -0.2084      1.00000
     62      -0.2084      1.00000
     63      -0.0598      1.00000
     64      -0.0598      1.00000
     65       0.1327      1.00000
     66       0.1327      1.00000
     67       0.2194      1.00000
     68       0.2194      1.00000
     69       0.3107      1.00000
     70       0.3107      1.00000
     71       0.3578      1.00000
     72       0.3578      1.00000
     73       0.5181      1.00000
     74       0.5181      1.00000
     75       0.6411      1.00000
     76       0.6411      1.00000
     77       0.8249      1.00000
     78       0.8249      1.00000
     79       0.9454      1.00000
     80       0.9454      1.00000
     81       4.3008      0.00000
     82       4.3008      0.00000
     83       4.3345      0.00000
     84       4.3345      0.00000
     85       4.6918      0.00000
     86       4.6918      0.00000
     87       4.9207      0.00000
     88       4.9207      0.00000
     89       5.0479      0.00000
     90       5.0479      0.00000
     91       5.1875      0.00000
     92       5.1875      0.00000
     93       6.6106      0.00000
     94       6.6106      0.00000
     95       6.6941      0.00000
     96       6.6941      0.00000
     97       7.0946      0.00000
     98       7.0946      0.00000
     99       7.7240      0.00000
    100       7.7240      0.00000
    101       9.7404      0.00000
    102       9.7404      0.00000
    103      10.1170      0.00000
    104      10.1170      0.00000
    105      10.6546      0.00000
    106      10.6546      0.00000
    107      10.9150      0.00000
    108      10.9150      0.00000
    109      11.3466      0.00000
    110      11.3466      0.00000
    111      11.4444      0.00000
    112      11.4444      0.00000
    113      11.9648      0.00000
    114      11.9648      0.00000
    115      12.1147      0.00000
    116      12.1149      0.00000
 Fermi energy:         1.4859799155

 spin component 2

 k-point     1 :       0.0000    0.0000    0.0000
  band No.  band energies     occupation 
      1     -19.2071      1.00000
      2     -19.0084      1.00000
      3     -18.9897      1.00000
      4     -18.9567      1.00000
      5     -16.7196      1.00000
      6     -16.6980      1.00000
      7     -16.6224      1.00000
      8     -16.5450      1.00000
      9     -16.5235      1.00000
     10     -16.4943      1.00000
     11     -16.4777      1.00000
     12     -16.4659      1.00000
     13     -16.4563      1.00000
     14     -16.4500      1.00000
     15     -16.4369      1.00000
     16     -16.4255      1.00000
     17     -14.7431      1.00000
     18     -14.7411      1.00000
     19     -14.2791      1.00000
     20     -14.2446      1.00000
     21      -6.9954      1.00000
     22      -6.7335      1.00000
     23      -6.5982      1.00000
     24      -6.2873      1.00000
     25      -4.7627      1.00000
     26      -4.6900      1.00000
     27      -4.6104      1.00000
     28      -4.4694      1.00000
     29      -4.4416      1.00000
     30      -4.1743      1.00000
     31      -4.1600      1.00000
     32      -4.0207      1.00000
     33      -3.9089      1.00000
     34      -3.9004      1.00000
     35      -3.7598      1.00000
     36      -3.6827      1.00000
     37      -2.4575      1.00000
     38      -2.3929      1.00000
     39      -2.3754      1.00000
     40      -2.2480      1.00000
     41      -2.2326      1.00000
     42      -2.1321      1.00000
     43      -1.9662      1.00000
     44      -1.8613      1.00000
     45      -1.7522      1.00000
     46      -1.6604      1.00000
     47      -1.6364      1.00000
     48      -1.4427      1.00000
     49      -1.3301      1.00000
     50      -1.1735      1.00000
     51      -1.1590      1.00000
     52      -1.1223      1.00000
     53      -1.1151      1.00000
     54      -1.0727      1.00000
     55      -0.7252      1.00000
     56      -0.7098      1.00000
     57      -0.5299      1.00000
     58      -0.4445      1.00000
     59      -0.3847      1.00000
     60      -0.2780      1.00000
     61      -0.2343      1.00000
     62      -0.1750      1.00000
     63      -0.1652      1.00000
     64      -0.1562      1.00000
     65       0.1344      1.00000
     66       0.1839      1.00000
     67       0.2154      1.00000
     68       0.2197      1.00000
     69       0.3246      1.00000
     70       0.3359      1.00000
     71       0.3943      1.00000
     72       0.4114      1.00000
     73       0.5167      1.00000
     74       0.6127      1.00000
     75       0.7721      1.00000
     76       0.7836      1.00000
     77       0.8395      1.00000
     78       0.8998      1.00000
     79       1.0369      1.00000
     80       1.1780      1.00000
     81       4.1436      0.00000
     82       4.2772      0.00000
     83       4.4115      0.00000
     84       4.5962      0.00000
     85       4.7089      0.00000
     86       4.7529      0.00000
     87       4.7616      0.00000
     88       4.8106      0.00000
     89       4.8945      0.00000
     90       4.9522      0.00000
     91       5.5293      0.00000
     92       5.5558      0.00000
     93       5.7078      0.00000
     94       5.9401      0.00000
     95       6.2599      0.00000
     96       6.4699      0.00000
     97       6.6175      0.00000
     98       6.7291      0.00000
     99       7.6555      0.00000
    100       7.9904      0.00000
    101       7.9958      0.00000
    102      10.2673      0.00000
    103      10.2864      0.00000
    104      10.5020      0.00000
    105      10.6590      0.00000
    106      10.6690      0.00000
    107      10.8957      0.00000
    108      10.9966      0.00000
    109      11.0176      0.00000
    110      11.3536      0.00000
    111      11.4885      0.00000
    112      11.5637      0.00000
    113      11.7817      0.00000
    114      11.8065      0.00000
    115      11.9797      0.00000
    116      12.2273      0.00000

 k-point     2 :       0.2500    0.0000    0.0000
  band No.  band energies     occupation 
      1     -19.1625      1.00000
      2     -19.0186      1.00000
      3     -18.9655      1.00000
      4     -18.9416      1.00000
      5     -16.7387      1.00000
      6     -16.7126      1.00000
      7     -16.6720      1.00000
      8     -16.5533      1.00000
      9     -16.5371      1.00000
     10     -16.5238      1.00000
     11     -16.4874      1.00000
     12     -16.4680      1.00000
     13     -16.4661      1.00000
     14     -16.4578      1.00000
     15     -16.4447      1.00000
     16     -16.4219      1.00000
     17     -14.7365      1.00000
     18     -14.7340      1.00000
     19     -14.2741      1.00000
     20     -14.2498      1.00000
     21      -6.8573      1.00000
     22      -6.5720      1.00000
     23      -6.5624      1.00000
     24      -6.2017      1.00000
     25      -4.7050      1.00000
     26      -4.6864      1.00000
     27      -4.6630      1.00000
     28      -4.3670      1.00000
     29      -4.3245      1.00000
     30      -4.2402      1.00000
     31      -4.1959      1.00000
     32      -3.9800      1.00000
     33      -3.9071      1.00000
     34      -3.8203      1.00000
     35      -3.6392      1.00000
     36      -3.6047      1.00000
     37      -2.4279      1.00000
     38      -2.4201      1.00000
     39      -2.4141      1.00000
     40      -2.2444      1.00000
     41      -2.1972      1.00000
     42      -2.1145      1.00000
     43      -2.0192      1.00000
     44      -1.9264      1.00000
     45      -1.7887      1.00000
     46      -1.6983      1.00000
     47      -1.6961      1.00000
     48      -1.4629      1.00000
     49      -1.4625      1.00000
     50      -1.3322      1.00000
     51      -1.2997      1.00000
     52      -1.1998      1.00000
     53      -1.1928      1.00000
     54      -0.7642      1.00000
     55      -0.7620      1.00000
     56      -0.7345      1.00000
     57      -0.6335      1.00000
     58      -0.5256      1.00000
     59      -0.3771      1.00000
     60      -0.2896      1.00000
     61      -0.2832      1.00000
     62      -0.2125      1.00000
     63      -0.1716      1.00000
     64      -0.0954      1.00000
     65      -0.0318      1.00000
     66       0.0317      1.00000
     67       0.1680      1.00000
     68       0.2022      1.00000
     69       0.2821      1.00000
     70       0.3156      1.00000
     71       0.3555      1.00000
     72       0.3561      1.00000
     73       0.4965      1.00000
     74       0.5958      1.00000
     75       0.7102      1.00000
     76       0.7962      1.00000
     77       0.8180      1.00000
     78       0.9130      1.00000
     79       0.9963      1.00000
     80       1.0549      1.00000
     81       4.1610      0.00000
     82       4.2770      0.00000
     83       4.3274      0.00000
     84       4.4877      0.00000
     85       4.6043      0.00000
     86       4.7444      0.00000
     87       4.7784      0.00000
     88       4.8034      0.00000
     89       4.8135      0.00000
     90       4.9415      0.00000
     91       5.4512      0.00000
     92       5.4857      0.00000
     93       6.1272      0.00000
     94       6.3043      0.00000
     95       6.5451      0.00000
     96       6.5592      0.00000
     97       6.7779      0.00000
     98       6.8107      0.00000
     99       7.8517      0.00000
    100       8.0691      0.00000
    101       8.3359      0.00000
    102      10.1986      0.00000
    103      10.2849      0.00000
    104      10.3509      0.00000
    105      10.6717      0.00000
    106      10.7953      0.00000
    107      10.9815      0.00000
    108      11.0733      0.00000
    109      11.1161      0.00000
    110      11.3006      0.00000
    111      11.4331      0.00000
    112      11.5653      0.00000
    113      11.8705      0.00000
    114      11.9174      0.00000
    115      11.9578      0.00000
    116      12.0438      0.00000

 k-point     3 :       0.5000    0.0000    0.0000
  band No.  band energies     occupation 
      1     -19.0732      1.00000
      2     -19.0732      1.00000
      3     -18.9333      1.00000
      4     -18.9333      1.00000
      5     -16.7264      1.00000
      6     -16.7264      1.00000
      7     -16.6964      1.00000
      8     -16.6964      1.00000
      9     -16.5235      1.00000
     10     -16.5235      1.00000
     11     -16.4737      1.00000
     12     -16.4737      1.00000
     13     -16.4708      1.00000
     14     -16.4708      1.00000
     15     -16.4351      1.00000
     16     -16.4351      1.00000
     17     -14.7288      1.00000
     18     -14.7288      1.00000
     19     -14.2621      1.00000
     20     -14.2621      1.00000
     21      -6.6352      1.00000
     22      -6.6352      1.00000
     23      -6.2574      1.00000
     24      -6.2574      1.00000
     25      -4.7269      1.00000
     26      -4.7269      1.00000
     27      -4.4286      1.00000
     28      -4.4286      1.00000
     29      -4.2017      1.00000
     30      -4.2017      1.00000
     31      -4.0782      1.00000
     32      -4.0782      1.00000
     33      -3.6941      1.00000
     34      -3.6941      1.00000
     35      -3.6811      1.00000
     36      -3.6811      1.00000
     37      -2.4209      1.00000
     38      -2.4209      1.00000
     39      -2.3649      1.00000
     40      -2.3649      1.00000
     41      -2.1855      1.00000
     42      -2.1855      1.00000
     43      -2.0021      1.00000
     44      -2.0021      1.00000
     45      -1.6946      1.00000
     46      -1.6946      1.00000
     47      -1.6395      1.00000
     48      -1.6395      1.00000
     49      -1.5546      1.00000
     50      -1.5546      1.00000
     51      -1.4530      1.00000
     52      -1.4530      1.00000
     53      -0.8311      1.00000
     54      -0.8311      1.00000
     55      -0.8165      1.00000
     56      -0.8165      1.00000
     57      -0.7346      1.00000
     58      -0.7346      1.00000
     59      -0.3346      1.00000
     60      -0.3346      1.00000
     61      -0.2838      1.00000
     62      -0.2838      1.00000
     63      -0.2085      1.00000
     64      -0.2085      1.00000
     65       0.0717      1.00000
     66       0.0717      1.00000
     67       0.0872      1.00000
     68       0.0872      1.00000
     69       0.2786      1.00000
     70       0.2786      1.00000
     71       0.3285      1.00000
     72       0.3285      1.00000
     73       0.5478      1.00000
     74       0.5478      1.00000
     75       0.7860      1.00000
     76       0.7860      1.00000
     77       0.8897      1.00000
     78       0.8897      1.00000
     79       0.9047      1.00000
     80       0.9047      1.00000
     81       4.2623      0.00000
     82       4.2623      0.00000
     83       4.2805      0.00000
     84       4.2805      0.00000
     85       4.5618      0.00000
     86       4.5618      0.00000
     87       4.8038      0.00000
     88       4.8038      0.00000
     89       4.8886      0.00000
     90       4.8887      0.00000
     91       5.4113      0.00000
     92       5.4113      0.00000
     93       6.5315      0.00000
     94       6.5315      0.00000
     95       6.6910      0.00000
     96       6.6910      0.00000
     97       6.9424      0.00000
     98       6.9424      0.00000
     99       8.1451      0.00000
    100       8.1451      0.00000
    101       9.2454      0.00000
    102       9.2454      0.00000
    103      10.3404      0.00000
    104      10.3404      0.00000
    105      10.8537      0.00000
    106      10.8538      0.00000
    107      11.1207      0.00000
    108      11.1207      0.00000
    109      11.1820      0.00000
    110      11.1820      0.00000
    111      11.5623      0.00000
    112      11.5623      0.00000
    113      11.8022      0.00000
    114      11.8022      0.00000
    115      12.1657      0.00000
    116      12.1658      0.00000

 k-point     4 :       0.0000    0.3333    0.0000
  band No.  band energies     occupation 
      1     -19.1596      1.00000
      2     -19.0599      1.00000
      3     -18.9804      1.00000
      4     -18.9634      1.00000
      5     -16.7318      1.00000
      6     -16.6586      1.00000
      7     -16.6132      1.00000
      8     -16.5630      1.00000
      9     -16.5284      1.00000
     10     -16.4940      1.00000
     11     -16.4899      1.00000
     12     -16.4762      1.00000
     13     -16.4468      1.00000
     14     -16.4441      1.00000
     15     -16.4424      1.00000
     16     -16.4370      1.00000
     17     -14.7363      1.00000
     18     -14.7346      1.00000
     19     -14.2713      1.00000
     20     -14.2539      1.00000
     21      -6.8968      1.00000
     22      -6.6607      1.00000
     23      -6.6314      1.00000
     24      -6.4507      1.00000
     25      -4.6997      1.00000
     26      -4.6561      1.00000
     27      -4.4679      1.00000
     28      -4.3714      1.00000
     29      -4.3401      1.00000
     30      -4.2363      1.00000
     31      -4.1905      1.00000
     32      -4.0564      1.00000
     33      -4.0041      1.00000
     34      -3.9591      1.00000
     35      -3.9442      1.00000
     36      -3.8202      1.00000
     37      -2.5089      1.00000
     38      -2.3675      1.00000
     39      -2.3242      1.00000
     40      -2.2766      1.00000
     41      -2.2401      1.00000
     42      -2.2262      1.00000
     43      -1.8412      1.00000
     44      -1.7369      1.00000
     45      -1.6994      1.00000
     46      -1.5123      1.00000
     47      -1.5029      1.00000
     48      -1.3691      1.00000
     49      -1.3669      1.00000
     50      -1.3532      1.00000
     51      -1.1497      1.00000
     52      -1.1279      1.00000
     53      -1.0780      1.00000
     54      -0.8859      1.00000
     55      -0.8383      1.00000
     56      -0.6638      1.00000
     57      -0.6235      1.00000
     58      -0.5418      1.00000
     59      -0.4610      1.00000
     60      -0.4237      1.00000
     61      -0.1966      1.00000
     62      -0.1674      1.00000
     63      -0.0768      1.00000
     64       0.0266      1.00000
     65       0.0291      1.00000
     66       0.1465      1.00000
     67       0.1498      1.00000
     68       0.2660      1.00000
     69       0.2969      1.00000
     70       0.3189      1.00000
     71       0.3491      1.00000
     72       0.4069      1.00000
     73       0.5047      1.00000
     74       0.5080      1.00000
     75       0.5980      1.00000
     76       0.7397      1.00000
     77       0.9006      1.00000
     78       0.9057      1.00000
     79       1.2277      1.00000
     80       1.2482      1.00000
     81       4.1673      0.00000
     82       4.2435      0.00000
     83       4.4876      0.00000
     84       4.5838      0.00000
     85       4.7492      0.00000
     86       4.7675      0.00000
     87       4.7874      0.00000
     88       4.7921      0.00000
     89       4.8467      0.00000
     90       4.8871      0.00000
     91       5.5402      0.00000
     92       5.5538      0.00000
     93       5.8481      0.00000
     94       5.9553      0.00000
     95       6.2752      0.00000
     96       6.3970      0.00000
     97       6.6361      0.00000
     98       6.6906      0.00000
     99       7.7406      0.00000
    100       7.9111      0.00000
    101       8.4343      0.00000
    102       9.4936      0.00000
    103      10.5005      0.00000
    104      10.6446      0.00000
    105      10.6668      0.00000
    106      10.7204      0.00000
    107      10.7798      0.00000
    108      10.9577      0.00000
    109      11.2815      0.00000
    110      11.3065      0.00000
    111      11.3476      0.00000
    112      11.4208      0.00000
    113      11.5674      0.00000
    114      11.8524      0.00000
    115      11.9534      0.00000
    116      12.0628      0.00000

 k-point     5 :       0.2500    0.3333    0.0000
  band No.  band energies     occupation 
      1     -19.1197      1.00000
      2     -19.0368      1.00000
      3     -18.9774      1.00000
      4     -18.9544      1.00000
      5     -16.7483      1.00000
      6     -16.6962      1.00000
      7     -16.6565      1.00000
      8     -16.6105      1.00000
      9     -16.5212      1.00000
     10     -16.5046      1.00000
     11     -16.4942      1.00000
     12     -16.4838      1.00000
     13     -16.4584      1.00000
     14     -16.4538      1.00000
     15     -16.4362      1.00000
     16     -16.4302      1.00000
     17     -14.7293      1.00000
     18     -14.7277      1.00000
     19     -14.2692      1.00000
     20     -14.2570      1.00000
     21      -6.7676      1.00000
     22      -6.5921      1.00000
     23      -6.5029      1.00000
     24      -6.3629      1.00000
     25      -4.6792      1.00000
     26      -4.6608      1.00000
     27      -4.4479      1.00000
     28      -4.2955      1.00000
     29      -4.2751      1.00000
     30      -4.2128      1.00000
     31      -4.1674      1.00000
     32      -4.0567      1.00000
     33      -4.0122      1.00000
     34      -3.8631      1.00000
     35      -3.8426      1.00000
     36      -3.7579      1.00000
     37      -2.4780      1.00000
     38      -2.4041      1.00000
     39      -2.2942      1.00000
     40      -2.2929      1.00000
     41      -2.1552      1.00000
     42      -2.1171      1.00000
     43      -1.9355      1.00000
     44      -1.9255      1.00000
     45      -1.8130      1.00000
     46      -1.7054      1.00000
     47      -1.6391      1.00000
     48      -1.5296      1.00000
     49      -1.3940      1.00000
     50      -1.3144      1.00000
     51      -1.2266      1.00000
     52      -1.2171      1.00000
     53      -1.0956      1.00000
     54      -0.9076      1.00000
     55      -0.8254      1.00000
     56      -0.7081      1.00000
     57      -0.7070      1.00000
     58      -0.6537      1.00000
     59      -0.2703      1.00000
     60      -0.2449      1.00000
     61      -0.1824      1.00000
     62      -0.1759      1.00000
     63      -0.1229      1.00000
     64      -0.1215      1.00000
     65       0.0307      1.00000
     66       0.0631      1.00000
     67       0.1341      1.00000
     68       0.1380      1.00000
     69       0.2461      1.00000
     70       0.2624      1.00000
     71       0.2967      1.00000
     72       0.3207      1.00000
     73       0.4109      1.00000
     74       0.5363      1.00000
     75       0.6709      1.00000
     76       0.7528      1.00000
     77       0.8827      1.00000
     78       0.9333      1.00000
     79       1.1143      1.00000
     80       1.1294      1.00000
     81       4.1790      0.00000
     82       4.2464      0.00000
     83       4.3886      0.00000
     84       4.4751      0.00000
     85       4.6181      0.00000
     86       4.7028      0.00000
     87       4.7876      0.00000
     88       4.8090      0.00000
     89       4.8231      0.00000
     90       4.8936      0.00000
     91       5.4659      0.00000
     92       5.4841      0.00000
     93       6.2398      0.00000
     94       6.3190      0.00000
     95       6.5542      0.00000
     96       6.5778      0.00000
     97       6.7553      0.00000
     98       6.7731      0.00000
     99       7.8985      0.00000
    100       8.0078      0.00000
    101       8.7148      0.00000
    102       9.6202      0.00000
    103      10.3478      0.00000
    104      10.4119      0.00000
    105      10.6139      0.00000
    106      10.7638      0.00000
    107      10.9900      0.00000
    108      11.0586      0.00000
    109      11.1768      0.00000
    110      11.2780      0.00000
    111      11.3985      0.00000
    112      11.4494      0.00000
    113      11.7714      0.00000
    114      11.7845      0.00000
    115      11.9225      0.00000
    116      12.0899      0.00000

 k-point     6 :       0.5000    0.3333    0.0000
  band No.  band energies     occupation 
      1     -19.0469      1.00000
      2     -19.0469      1.00000
      3     -18.9590      1.00000
      4     -18.9590      1.00000
      5     -16.7237      1.00000
      6     -16.7237      1.00000
      7     -16.7138      1.00000
      8     -16.7138      1.00000
      9     -16.5138      1.00000
     10     -16.5138      1.00000
     11     -16.4812      1.00000
     12     -16.4812      1.00000
     13     -16.4647      1.00000
     14     -16.4647      1.00000
     15     -16.4342      1.00000
     16     -16.4342      1.00000
     17     -14.7219      1.00000
     18     -14.7219      1.00000
     19     -14.2636      1.00000
     20     -14.2636      1.00000
     21      -6.5836      1.00000
     22      -6.5836      1.00000
     23      -6.3239      1.00000
     24      -6.3239      1.00000
     25      -4.6640      1.00000
     26      -4.6639      1.00000
     27      -4.3256      1.00000
     28      -4.3256      1.00000
     29      -4.1441      1.00000
     30      -4.1441      1.00000
     31      -4.0946      1.00000
     32      -4.0946      1.00000
     33      -3.8540      1.00000
     34      -3.8540      1.00000
     35      -3.7709      1.00000
     36      -3.7709      1.00000
     37      -2.3785      1.00000
     38      -2.3785      1.00000
     39      -2.2912      1.00000
     40      -2.2912      1.00000
     41      -2.1942      1.00000
     42      -2.1942      1.00000
     43      -2.0066      1.00000
     44      -2.0066      1.00000
     45      -1.8618      1.00000
     46      -1.8618      1.00000
     47      -1.7277      1.00000
     48      -1.7277      1.00000
     49      -1.4403      1.00000
     50      -1.4403      1.00000
     51      -1.3042      1.00000
     52      -1.3042      1.00000
     53      -0.9960      1.00000
     54      -0.9960      1.00000
     55      -0.8894      1.00000
     56      -0.8894      1.00000
     57      -0.7059      1.00000
     58      -0.7059      1.00000
     59      -0.3511      1.00000
     60      -0.3511      1.00000
     61      -0.1422      1.00000
     62      -0.1422      1.00000
     63      -0.1314      1.00000
     64      -0.1314      1.00000
     65       0.0296      1.00000
     66       0.0296      1.00000
     67       0.1765      1.00000
     68       0.1765      1.00000
     69       0.2681      1.00000
     70       0.2681      1.00000
     71       0.3350      1.00000
     72       0.3350      1.00000
     73       0.4165      1.00000
     74       0.4165      1.00000
     75       0.7558      1.00000
     76       0.7558      1.00000
     77       0.8148      1.00000
     78       0.8148      1.00000
     79       1.0584      1.00000
     80       1.0584      1.00000
     81       4.2712      0.00000
     82       4.2712      0.00000
     83       4.2862      0.00000
     84       4.2862      0.00000
     85       4.5405      0.00000
     86       4.5405      0.00000
     87       4.8048      0.00000
     88       4.8049      0.00000
     89       4.8735      0.00000
     90       4.8735      0.00000
     91       5.4216      0.00000
     92       5.4216      0.00000
     93       6.5675      0.00000
     94       6.5675      0.00000
     95       6.7113      0.00000
     96       6.7113      0.00000
     97       6.9494      0.00000
     98       6.9494      0.00000
     99       8.1327      0.00000
    100       8.1327      0.00000
    101       9.4354      0.00000
    102       9.4354      0.00000
    103      10.1087      0.00000
    104      10.1087      0.00000
    105      10.6250      0.00000
    106      10.6250      0.00000
    107      11.1953      0.00000
    108      11.1953      0.00000
    109      11.3249      0.00000
    110      11.3249      0.00000
    111      11.4104      0.00000
    112      11.4104      0.00000
    113      11.7187      0.00000
    114      11.7187      0.00000
    115      12.0707      0.00000
    116      12.0707      0.00000

 k-point     7 :       0.0000    0.0000    0.3333
  band No.  band energies     occupation 
      1     -19.1632      1.00000
      2     -19.0625      1.00000
      3     -18.9872      1.00000
      4     -18.9534      1.00000
      5     -16.7101      1.00000
      6     -16.6993      1.00000
      7     -16.5805      1.00000
      8     -16.5277      1.00000
      9     -16.5078      1.00000
     10     -16.5035      1.00000
     11     -16.4838      1.00000
     12     -16.4772      1.00000
     13     -16.4618      1.00000
     14     -16.4614      1.00000
     15     -16.4583      1.00000
     16     -16.4436      1.00000
     17     -14.6355      1.00000
     18     -14.6186      1.00000
     19     -14.4044      1.00000
     20     -14.3706      1.00000
     21      -6.9409      1.00000
     22      -6.8138      1.00000
     23      -6.5157      1.00000
     24      -6.3579      1.00000
     25      -4.7075      1.00000
     26      -4.6707      1.00000
     27      -4.4368      1.00000
     28      -4.4071      1.00000
     29      -4.3570      1.00000
     30      -4.2580      1.00000
     31      -4.2175      1.00000
     32      -4.0979      1.00000
     33      -4.0812      1.00000
     34      -4.0430      1.00000
     35      -3.7186      1.00000
     36      -3.6852      1.00000
     37      -2.2784      1.00000
     38      -2.2761      1.00000
     39      -2.2035      1.00000
     40      -2.0668      1.00000
     41      -2.0528      1.00000
     42      -2.0302      1.00000
     43      -2.0061      1.00000
     44      -1.9032      1.00000
     45      -1.7075      1.00000
     46      -1.6618      1.00000
     47      -1.5537      1.00000
     48      -1.4109      1.00000
     49      -1.3618      1.00000
     50      -1.2942      1.00000
     51      -1.1482      1.00000
     52      -1.1321      1.00000
     53      -1.0195      1.00000
     54      -1.0132      1.00000
     55      -1.0017      1.00000
     56      -0.7460      1.00000
     57      -0.7267      1.00000
     58      -0.7141      1.00000
     59      -0.5946      1.00000
     60      -0.4038      1.00000
     61      -0.3430      1.00000
     62      -0.1599      1.00000
     63      -0.1029      1.00000
     64       0.0090      1.00000
     65       0.0156      1.00000
     66       0.0345      1.00000
     67       0.1013      1.00000
     68       0.1474      1.00000
     69       0.2424      1.00000
     70       0.2924      1.00000
     71       0.4739      1.00000
     72       0.5414      1.00000
     73       0.5718      1.00000
     74       0.6803      1.00000
     75       0.7500      1.00000
     76       0.8258      1.00000
     77       0.8528      1.00000
     78       0.8761      1.00000
     79       1.0021      1.00000
     80       1.1832      1.00000
     81       4.1687      0.00000
     82       4.2260      0.00000
     83       4.5458      0.00000
     84       4.6039      0.00000
     85       4.8651      0.00000
     86       4.9141      0.00000
     87       4.9532      0.00000
     88       4.9750      0.00000
     89       5.0005      0.00000
     90       5.1284      0.00000
     91       5.3027      0.00000
     92       5.3565      0.00000
     93       5.7665      0.00000
     94       5.8761      0.00000
     95       6.3256      0.00000
     96       6.4166      0.00000
     97       6.6357      0.00000
     98       6.9656      0.00000
     99       7.2265      0.00000
    100       7.6519      0.00000
    101       8.5081      0.00000
    102       9.5380      0.00000
    103      10.5594      0.00000
    104      10.6300      0.00000
    105      10.6751      0.00000
    106      10.6759      0.00000
    107      11.0822      0.00000
    108      11.1084      0.00000
    109      11.2774      0.00000
    110      11.2776      0.00000
    111      11.3728      0.00000
    112      11.4416      0.00000
    113      11.6975      0.00000
    114      11.7271      0.00000
    115      12.0886      0.00000
    116      12.2331      0.00000

 k-point     8 :       0.2500    0.0000    0.3333
  band No.  band energies     occupation 
      1     -19.1212      1.00000
      2     -19.0286      1.00000
      3     -18.9937      1.00000
      4     -18.9495      1.00000
      5     -16.7280      1.00000
      6     -16.7158      1.00000
      7     -16.6279      1.00000
      8     -16.5653      1.00000
      9     -16.5318      1.00000
     10     -16.5075      1.00000
     11     -16.5027      1.00000
     12     -16.4831      1.00000
     13     -16.4699      1.00000
     14     -16.4664      1.00000
     15     -16.4463      1.00000
     16     -16.4375      1.00000
     17     -14.6283      1.00000
     18     -14.6159      1.00000
     19     -14.3979      1.00000
     20     -14.3741      1.00000
     21      -6.7942      1.00000
     22      -6.6503      1.00000
     23      -6.4820      1.00000
     24      -6.2968      1.00000
     25      -4.6637      1.00000
     26      -4.6302      1.00000
     27      -4.5033      1.00000
     28      -4.3134      1.00000
     29      -4.2924      1.00000
     30      -4.2604      1.00000
     31      -4.2176      1.00000
     32      -4.1099      1.00000
     33      -3.9906      1.00000
     34      -3.9894      1.00000
     35      -3.6435      1.00000
     36      -3.6259      1.00000
     37      -2.3142      1.00000
     38      -2.2711      1.00000
     39      -2.1764      1.00000
     40      -2.0976      1.00000
     41      -2.0899      1.00000
     42      -1.9658      1.00000
     43      -1.9566      1.00000
     44      -1.8361      1.00000
     45      -1.7993      1.00000
     46      -1.6799      1.00000
     47      -1.5292      1.00000
     48      -1.5127      1.00000
     49      -1.4720      1.00000
     50      -1.4247      1.00000
     51      -1.2824      1.00000
     52      -1.2376      1.00000
     53      -1.1331      1.00000
     54      -1.0769      1.00000
     55      -1.0568      1.00000
     56      -0.9291      1.00000
     57      -0.7106      1.00000
     58      -0.6785      1.00000
     59      -0.5437      1.00000
     60      -0.3519      1.00000
     61      -0.3512      1.00000
     62      -0.1811      1.00000
     63      -0.1550      1.00000
     64      -0.0874      1.00000
     65      -0.0522      1.00000
     66       0.0005      1.00000
     67       0.1010      1.00000
     68       0.1089      1.00000
     69       0.3154      1.00000
     70       0.3590      1.00000
     71       0.4621      1.00000
     72       0.5171      1.00000
     73       0.5237      1.00000
     74       0.5560      1.00000
     75       0.6503      1.00000
     76       0.7124      1.00000
     77       0.8599      1.00000
     78       0.8714      1.00000
     79       0.9477      1.00000
     80       1.0637      1.00000
     81       4.1890      0.00000
     82       4.2423      0.00000
     83       4.4597      0.00000
     84       4.5001      0.00000
     85       4.7822      0.00000
     86       4.8604      0.00000
     87       4.8926      0.00000
     88       4.9495      0.00000
     89       5.0248      0.00000
     90       5.1244      0.00000
     91       5.2144      0.00000
     92       5.2545      0.00000
     93       6.1767      0.00000
     94       6.2615      0.00000
     95       6.5628      0.00000
     96       6.5780      0.00000
     97       6.8604      0.00000
     98       6.9997      0.00000
     99       7.4276      0.00000
    100       7.6996      0.00000
    101       8.7969      0.00000
    102       9.7335      0.00000
    103      10.3584      0.00000
    104      10.5312      0.00000
    105      10.7194      0.00000
    106      10.8161      0.00000
    107      10.9499      0.00000
    108      11.1214      0.00000
    109      11.2924      0.00000
    110      11.3161      0.00000
    111      11.3813      0.00000
    112      11.3892      0.00000
    113      11.7057      0.00000
    114      11.8687      0.00000
    115      12.1089      0.00000
    116      12.1775      0.00000

 k-point     9 :       0.5000    0.0000    0.3333
  band No.  band energies     occupation 
      1     -19.0395      1.00000
      2     -19.0395      1.00000
      3     -18.9697      1.00000
      4     -18.9697      1.00000
      5     -16.7079      1.00000
      6     -16.7079      1.00000
      7     -16.6936      1.00000
      8     -16.6936      1.00000
      9     -16.5220      1.00000
     10     -16.5220      1.00000
     11     -16.4949      1.00000
     12     -16.4949      1.00000
     13     -16.4612      1.00000
     14     -16.4612      1.00000
     15     -16.4451      1.00000
     16     -16.4451      1.00000
     17     -14.6175      1.00000
     18     -14.6175      1.00000
     19     -14.3846      1.00000
     20     -14.3846      1.00000
     21      -6.5508      1.00000
     22      -6.5508      1.00000
     23      -6.3651      1.00000
     24      -6.3651      1.00000
     25      -4.6027      1.00000
     26      -4.6027      1.00000
     27      -4.4420      1.00000
     28      -4.4420      1.00000
     29      -4.1824      1.00000
     30      -4.1824      1.00000
     31      -4.1172      1.00000
     32      -4.1172      1.00000
     33      -3.7674      1.00000
     34      -3.7674      1.00000
     35      -3.7515      1.00000
     36      -3.7515      1.00000
     37      -2.2660      1.00000
     38      -2.2660      1.00000
     39      -2.2189      1.00000
     40      -2.2189      1.00000
     41      -2.0419      1.00000
     42      -2.0419      1.00000
     43      -1.8393      1.00000
     44      -1.8393      1.00000
     45      -1.8214      1.00000
     46      -1.8214      1.00000
     47      -1.6091      1.00000
     48      -1.6091      1.00000
     49      -1.4744      1.00000
     50      -1.4744      1.00000
     51      -1.3030      1.00000
     52      -1.3030      1.00000
     53      -1.1586      1.00000
     54      -1.1586      1.00000
     55      -0.9872      1.00000
     56      -0.9872      1.00000
     57      -0.9613      1.00000
     58      -0.9613      1.00000
     59      -0.5663      1.00000
     60      -0.5663      1.00000
     61      -0.3096      1.00000
     62      -0.3096      1.00000
     63      -0.1273      1.00000
     64      -0.1273      1.00000
     65       0.0889      1.00000
     66       0.0889      1.00000
     67       0.2068      1.00000
     68       0.2068      1.00000
     69       0.3019      1.00000
     70       0.3019      1.00000
     71       0.3497      1.00000
     72       0.3497      1.00000
     73       0.6134      1.00000
     74       0.6134      1.00000
     75       0.7380      1.00000
     76       0.7380      1.00000
     77       0.7575      1.00000
     78       0.7575      1.00000
     79       0.8928      1.00000
     80       0.8928      1.00000
     81       4.3054      0.00000
     82       4.3054      0.00000
     83       4.3253      0.00000
     84       4.3253      0.00000
     85       4.7002      0.00000
     86       4.7002      0.00000
     87       4.9303      0.00000
     88       4.9303      0.00000
     89       5.0909      0.00000
     90       5.0909      0.00000
     91       5.1581      0.00000
     92       5.1581      0.00000
     93       6.5734      0.00000
     94       6.5734      0.00000
     95       6.6700      0.00000
     96       6.6700      0.00000
     97       7.1012      0.00000
     98       7.1012      0.00000
     99       7.7383      0.00000
    100       7.7383      0.00000
    101       9.5636      0.00000
    102       9.5636      0.00000
    103      10.1723      0.00000
    104      10.1723      0.00000
    105      10.8626      0.00000
    106      10.8626      0.00000
    107      11.0095      0.00000
    108      11.0095      0.00000
    109      11.2760      0.00000
    110      11.2760      0.00000
    111      11.3982      0.00000
    112      11.3982      0.00000
    113      11.9681      0.00000
    114      11.9681      0.00000
    115      12.0583      0.00000
    116      12.0583      0.00000

 k-point    10 :       0.0000    0.3333    0.3333
  band No.  band energies     occupation 
      1     -19.1318      1.00000
      2     -19.0786      1.00000
      3     -18.9844      1.00000
      4     -18.9685      1.00000
      5     -16.7261      1.00000
      6     -16.6921      1.00000
      7     -16.6006      1.00000
      8     -16.5707      1.00000
      9     -16.5182      1.00000
     10     -16.4984      1.00000
     11     -16.4812      1.00000
     12     -16.4718      1.00000
     13     -16.4503      1.00000
     14     -16.4468      1.00000
     15     -16.4441      1.00000
     16     -16.4269      1.00000
     17     -14.6281      1.00000
     18     -14.6194      1.00000
     19     -14.3939      1.00000
     20     -14.3770      1.00000
     21      -6.8463      1.00000
     22      -6.7233      1.00000
     23      -6.6020      1.00000
     24      -6.4990      1.00000
     25      -4.6923      1.00000
     26      -4.6623      1.00000
     27      -4.4083      1.00000
     28      -4.3216      1.00000
     29      -4.2925      1.00000
     30      -4.2130      1.00000
     31      -4.1756      1.00000
     32      -4.1732      1.00000
     33      -4.0032      1.00000
     34      -3.9731      1.00000
     35      -3.9113      1.00000
     36      -3.8414      1.00000
     37      -2.3273      1.00000
     38      -2.2194      1.00000
     39      -2.1906      1.00000
     40      -2.1434      1.00000
     41      -2.1012      1.00000
     42      -2.0334      1.00000
     43      -1.8535      1.00000
     44      -1.7445      1.00000
     45      -1.7423      1.00000
     46      -1.6042      1.00000
     47      -1.5298      1.00000
     48      -1.4971      1.00000
     49      -1.3808      1.00000
     50      -1.3528      1.00000
     51      -1.3318      1.00000
     52      -1.2192      1.00000
     53      -1.1563      1.00000
     54      -0.9218      1.00000
     55      -0.8213      1.00000
     56      -0.7557      1.00000
     57      -0.7079      1.00000
     58      -0.7026      1.00000
     59      -0.4720      1.00000
     60      -0.4712      1.00000
     61      -0.3602      1.00000
     62      -0.2742      1.00000
     63      -0.1142      1.00000
     64      -0.0834      1.00000
     65       0.0066      1.00000
     66       0.0341      1.00000
     67       0.2072      1.00000
     68       0.2533      1.00000
     69       0.2544      1.00000
     70       0.3046      1.00000
     71       0.4837      1.00000
     72       0.5605      1.00000
     73       0.5777      1.00000
     74       0.6123      1.00000
     75       0.7008      1.00000
     76       0.7364      1.00000
     77       0.8500      1.00000
     78       0.8575      1.00000
     79       1.1528      1.00000
     80       1.2246      1.00000
     81       4.1946      0.00000
     82       4.2330      0.00000
     83       4.5414      0.00000
     84       4.5853      0.00000
     85       4.8649      0.00000
     86       4.9022      0.00000
     87       4.9302      0.00000
     88       4.9756      0.00000
     89       5.0103      0.00000
     90       5.0803      0.00000
     91       5.3257      0.00000
     92       5.3519      0.00000
     93       5.8747      0.00000
     94       5.9259      0.00000
     95       6.3062      0.00000
     96       6.3600      0.00000
     97       6.7190      0.00000
     98       6.8744      0.00000
     99       7.3425      0.00000
    100       7.5475      0.00000
    101       8.8764      0.00000
    102       9.5023      0.00000
    103      10.3643      0.00000
    104      10.4959      0.00000
    105      10.6900      0.00000
    106      10.7166      0.00000
    107      11.0367      0.00000
    108      11.1358      0.00000
    109      11.2834      0.00000
    110      11.3277      0.00000
    111      11.3488      0.00000
    112      11.4244      0.00000
    113      11.4470      0.00000
    114      11.7146      0.00000
    115      11.9565      0.00000
    116      12.1082      0.00000

 k-point    11 :       0.2500    0.3333    0.3333
  band No.  band energies     occupation 
      1     -19.0936      1.00000
      2     -19.0459      1.00000
      3     -18.9845      1.00000
      4     -18.9643      1.00000
      5     -16.7458      1.00000
      6     -16.7201      1.00000
      7     -16.6455      1.00000
      8     -16.6210      1.00000
      9     -16.5170      1.00000
     10     -16.5000      1.00000
     11     -16.4897      1.00000
     12     -16.4783      1.00000
     13     -16.4621      1.00000
     14     -16.4594      1.00000
     15     -16.4338      1.00000
     16     -16.4227      1.00000
     17     -14.6214      1.00000
     18     -14.6149      1.00000
     19     -14.3907      1.00000
     20     -14.3787      1.00000
     21      -6.7169      1.00000
     22      -6.5931      1.00000
     23      -6.5354      1.00000
     24      -6.4231      1.00000
     25      -4.6419      1.00000
     26      -4.6345      1.00000
     27      -4.3750      1.00000
     28      -4.3043      1.00000
     29      -4.2458      1.00000
     30      -4.2333      1.00000
     31      -4.1900      1.00000
     32      -4.0876      1.00000
     33      -4.0072      1.00000
     34      -3.9134      1.00000
     35      -3.7664      1.00000
     36      -3.7551      1.00000
     37      -2.3253      1.00000
     38      -2.2394      1.00000
     39      -2.1927      1.00000
     40      -2.1405      1.00000
     41      -2.0561      1.00000
     42      -2.0155      1.00000
     43      -1.9817      1.00000
     44      -1.8570      1.00000
     45      -1.7992      1.00000
     46      -1.7108      1.00000
     47      -1.5665      1.00000
     48      -1.5527      1.00000
     49      -1.4427      1.00000
     50      -1.3654      1.00000
     51      -1.3438      1.00000
     52      -1.3184      1.00000
     53      -1.2013      1.00000
     54      -1.1778      1.00000
     55      -0.9305      1.00000
     56      -0.8599      1.00000
     57      -0.7105      1.00000
     58      -0.6580      1.00000
     59      -0.5369      1.00000
     60      -0.4477      1.00000
     61      -0.2335      1.00000
     62      -0.1665      1.00000
     63      -0.1414      1.00000
     64      -0.0328      1.00000
     65       0.0181      1.00000
     66       0.0505      1.00000
     67       0.0797      1.00000
     68       0.1809      1.00000
     69       0.2595      1.00000
     70       0.3346      1.00000
     71       0.3803      1.00000
     72       0.4497      1.00000
     73       0.5505      1.00000
     74       0.5571      1.00000
     75       0.6412      1.00000
     76       0.7004      1.00000
     77       0.8227      1.00000
     78       0.8975      1.00000
     79       1.0557      1.00000
     80       1.0945      1.00000
     81       4.2101      0.00000
     82       4.2463      0.00000
     83       4.4504      0.00000
     84       4.4910      0.00000
     85       4.7875      0.00000
     86       4.8208      0.00000
     87       4.9069      0.00000
     88       4.9277      0.00000
     89       5.0280      0.00000
     90       5.0757      0.00000
     91       5.2416      0.00000
     92       5.2623      0.00000
     93       6.2634      0.00000
     94       6.3014      0.00000
     95       6.5664      0.00000
     96       6.5836      0.00000
     97       6.8681      0.00000
     98       6.9438      0.00000
     99       7.4888      0.00000
    100       7.6230      0.00000
    101       9.1194      0.00000
    102       9.6886      0.00000
    103      10.2858      0.00000
    104      10.4335      0.00000
    105      10.6482      0.00000
    106      10.7724      0.00000
    107      10.9439      0.00000
    108      11.0198      0.00000
    109      11.2224      0.00000
    110      11.3122      0.00000
    111      11.4047      0.00000
    112      11.4770      0.00000
    113      11.6195      0.00000
    114      11.8412      0.00000
    115      12.0233      0.00000
    116      12.0909      0.00000

 k-point    12 :       0.5000    0.3333    0.3333
  band No.  band energies     occupation 
      1     -19.0249      1.00000
      2     -19.0249      1.00000
      3     -18.9809      1.00000
      4     -18.9809      1.00000
      5     -16.7295      1.00000
      6     -16.7295      1.00000
      7     -16.7175      1.00000
      8     -16.7175      1.00000
      9     -16.5090      1.00000
     10     -16.5090      1.00000
     11     -16.4848      1.00000
     12     -16.4848      1.00000
     13     -16.4574      1.00000
     14     -16.4574      1.00000
     15     -16.4339      1.00000
     16     -16.4339      1.00000
     17     -14.6127      1.00000
     18     -14.6127      1.00000
     19     -14.3839      1.00000
     20     -14.3839      1.00000
     21      -6.5314      1.00000
     22      -6.5314      1.00000
     23      -6.4047      1.00000
     24      -6.4047      1.00000
     25      -4.5651      1.00000
     26      -4.5651      1.00000
     27      -4.3981      1.00000
     28      -4.3981      1.00000
     29      -4.1207      1.00000
     30      -4.1207      1.00000
     31      -4.0972      1.00000
     32      -4.0972      1.00000
     33      -3.8467      1.00000
     34      -3.8467      1.00000
     35      -3.7443      1.00000
     36      -3.7443      1.00000
     37      -2.2923      1.00000
     38      -2.2923      1.00000
     39      -2.2297      1.00000
     40      -2.2297      1.00000
     41      -2.0569      1.00000
     42      -2.0569      1.00000
     43      -1.9203      1.00000
     44      -1.9203      1.00000
     45      -1.8332      1.00000
     46      -1.8332      1.00000
     47      -1.6513      1.00000
     48      -1.6513      1.00000
     49      -1.5270      1.00000
     50      -1.5270      1.00000
     51      -1.3577      1.00000
     52      -1.3577      1.00000
     53      -1.2524      1.00000
     54      -1.2524      1.00000
     55      -1.0156      1.00000
     56      -1.0156      1.00000
     57      -0.7232      1.00000
     58      -0.7232      1.00000
     59      -0.6096      1.00000
     60      -0.6096      1.00000
     61      -0.2084      1.00000
     62      -0.2084      1.00000
     63      -0.0598      1.00000
     64      -0.0598      1.00000
     65       0.1327      1.00000
     66       0.1327      1.00000
     67       0.2194      1.00000
     68       0.2194      1.00000
     69       0.3107      1.00000
     70       0.3107      1.00000
     71       0.3578      1.00000
     72       0.3578      1.00000
     73       0.5181      1.00000
     74       0.5181      1.00000
     75       0.6411      1.00000
     76       0.6411      1.00000
     77       0.8249      1.00000
     78       0.8249      1.00000
     79       0.9454      1.00000
     80       0.9454      1.00000
     81       4.3008      0.00000
     82       4.3008      0.00000
     83       4.3345      0.00000
     84       4.3345      0.00000
     85       4.6918      0.00000
     86       4.6918      0.00000
     87       4.9207      0.00000
     88       4.9207      0.00000
     89       5.0479      0.00000
     90       5.0479      0.00000
     91       5.1875      0.00000
     92       5.1875      0.00000
     93       6.6106      0.00000
     94       6.6106      0.00000
     95       6.6941      0.00000
     96       6.6941      0.00000
     97       7.0946      0.00000
     98       7.0946      0.00000
     99       7.7240      0.00000
    100       7.7240      0.00000
    101       9.7404      0.00000
    102       9.7404      0.00000
    103      10.1170      0.00000
    104      10.1170      0.00000
    105      10.6546      0.00000
    106      10.6546      0.00000
    107      10.9150      0.00000
    108      10.9150      0.00000
    109      11.3466      0.00000
    110      11.3466      0.00000
    111      11.4444      0.00000
    112      11.4444      0.00000
    113      11.9648      0.00000
    114      11.9648      0.00000
    115      12.1147      0.00000
    116      12.1170      0.00000


--------------------------------------------------------------------------------------------------------


 soft charge-density along one line, spin component           1
         0         1         2         3         4         5         6         7         8         9
 total charge-density along one line
 
 soft charge-density along one line, spin component           2
         0         1         2         3         4         5         6         7         8         9
 total charge-density along one line
 
 pseudopotential strength for first ion, spin component:           1
  1.175   5.254   0.000   0.000   0.000
  5.254  22.466   0.000   0.000   0.000
  0.000   0.000  -0.344  -0.000   0.000
  0.000   0.000  -0.000  -0.345  -0.001
  0.000   0.000   0.000  -0.001  -0.344
 pseudopotential strength for first ion, spin component:           2
  1.175   5.254   0.000   0.000   0.000
  5.254  22.466   0.000   0.000   0.000
  0.000   0.000  -0.344  -0.000   0.000
  0.000   0.000  -0.000  -0.345  -0.001
  0.000   0.000   0.000  -0.001  -0.344
 total augmentation occupancy for first ion, spin component:           1
  0.807  -0.022   0.000   0.000   0.000
 -0.022   0.001   0.000   0.000   0.000
  0.000   0.000   0.091  -0.015  -0.008
  0.000   0.000  -0.015   0.062  -0.006
  0.000   0.000  -0.008  -0.006   0.073
 total augmentation occupancy for first ion, spin component:           2
  0.000  -0.000   0.000   0.000   0.000
 -0.000   0.000   0.000   0.000   0.000
  0.000   0.000  -0.000   0.000  -0.000
  0.000   0.000   0.000  -0.000  -0.000
  0.000   0.000  -0.000  -0.000   0.000


------------------------ aborting loop because EDIFF is reached ----------------------------------------





 total charge

# of ion       s       p       d       tot
------------------------------------------
    1        0.078   0.163   0.000   0.241
    2        0.078   0.163   0.000   0.241
    3        0.078   0.163   0.000   0.241
    4        0.078   0.163   0.000   0.241
    5        0.546   1.012   2.655   4.213
    6        0.546   1.012   2.655   4.213
    7        0.546   1.012   2.655   4.213
    8        0.546   1.012   2.655   4.213
    9        0.907   1.501   0.000   2.408
   10        0.907   1.501   0.000   2.408
   11        0.907   1.501   0.000   2.408
   12        0.907   1.501   0.000   2.408
   13        1.561   3.616   0.000   5.177
   14        1.561   3.616   0.000   5.177
   15        1.561   3.616   0.000   5.177
   16        1.561   3.616   0.000   5.177
   17        1.561   3.616   0.000   5.177
   18        1.561   3.616   0.000   5.177
   19        1.561   3.616   0.000   5.177
   20        1.561   3.616   0.000   5.177
   21        1.574   3.443   0.000   5.016
   22        1.574   3.443   0.000   5.016
   23        1.574   3.443   0.000   5.016
   24        1.574   3.443   0.000   5.016
   25        1.560   3.603   0.000   5.163
   26        1.560   3.603   0.000   5.163
   27        1.560   3.603   0.000   5.163
   28        1.560   3.603   0.000   5.163
   29        1.564   3.598   0.000   5.162
   30        1.564   3.598   0.000   5.162
   31        1.564   3.598   0.000   5.162
   32        1.564   3.598   0.000   5.162
--------------------------------------------------
tot         37.404  82.204  10.618 130.226



 magnetization (x)

# of ion       s       p       d       tot
------------------------------------------
    1        0.000   0.000   0.000   0.000
    2        0.000   0.000   0.000   0.000
    3        0.000   0.000   0.000   0.000
    4        0.000   0.000   0.000   0.000
    5       -0.000   0.000  -0.000  -0.000
    6       -0.000   0.000  -0.000  -0.000
    7       -0.000   0.000  -0.000  -0.000
    8       -0.000   0.000  -0.000  -0.000
    9       -0.000  -0.000   0.000  -0.000
   10       -0.000  -0.000   0.000  -0.000
   11       -0.000  -0.000   0.000  -0.000
   12       -0.000  -0.000   0.000  -0.000
   13       -0.000   0.000   0.000   0.000
   14       -0.000   0.000   0.000   0.000
   15       -0.000   0.000   0.000   0.000
   16       -0.000   0.000   0.000   0.000
   17       -0.000   0.000   0.000   0.000
   18       -0.000   0.000   0.000   0.000
   19       -0.000   0.000   0.000   0.000
   20       -0.000   0.000   0.000   0.000
   21        0.000  -0.000   0.000  -0.000
   22        0.000  -0.000   0.000  -0.000
   23        0.000  -0.000   0.000  -0.000
   24        0.000  -0.000   0.000  -0.000
   25       -0.000   0.000   0.000   0.000
   26       -0.000   0.000   0.000   0.000
   27       -0.000   0.000   0.000   0.000
   28       -0.000   0.000   0.000   0.000
   29       -0.000   0.000   0.000   0.000
   30       -0.000   0.000   0.000   0.000
   31       -0.000   0.000   0.000   0.000
   32       -0.000   0.000   0.000   0.000
--------------------------------------------------
tot         -0.000   0.000  -0.000   0.000
 
    CHARGE:  cpu time      0.1384: real time      0.1389
    FORLOC:  cpu time      0.0028: real time      0.0028
    FORNL :  cpu time      0.5778: real time      0.5793
    STRESS:  cpu time      0.7229: real time      0.7254
    FORCOR:  cpu time      0.0329: real time      0.0331
    FORHAR:  cpu time      0.0057: real time      0.0057
    MIXING:  cpu time      0.0007: real time      0.0007
    OFIELD:  cpu time      0.0001: real time      0.0001

 ---------------------------------------------------------------------------------------------

         DFTD3 V3.0 Rev 1        
 Edisp (eV)   -4.78675

 E6    (eV) :    -2.3246
 E8    (eV) :    -2.4621
 % E8        : 51.44
    FORVDW:  cpu time      0.2401: real time      0.2407

  FORCE on cell =-STRESS in cart. coord.  units (eV):
  Direction    XX          YY          ZZ          XY          YZ          ZX
  --------------------------------------------------------------------------------------
  Alpha Z   419.63208   419.63208   419.63208
  Ewald   -2319.60391 -2300.81926 -2391.87890     0.00000    -0.00004    -0.00000
  Hartree  1070.59276  1054.75324  1014.15152    -0.00000     0.00000    -0.00000
  E(xc)    -752.26378  -752.45539  -756.78292     0.00000     0.00000    -0.00000
  Local   -1239.89426 -1237.25398 -1117.63767    -0.00000     0.00004     0.00000
  n-local  -283.80707  -286.52003  -294.04146     0.00097     0.00559     0.00126
  augment   118.61390   118.71543   122.43438    -0.00000    -0.00000     0.00000
  Kinetic  2991.00191  2988.42119  3008.10801    -0.09285    -0.03968     0.01862
  Fock        0.00000     0.00000     0.00000     0.00000     0.00000     0.00000
  vdW        -4.28669    -4.48594    -3.98934    -0.00000    -0.00000    -0.00000
  -------------------------------------------------------------------------------------
  Total      -0.01505    -0.01265    -0.00430     0.00000     0.00000     0.00000
  in kB      -0.06979    -0.05867    -0.01993     0.00000     0.00000     0.00000
  external pressure =       -0.05 kB  Pullay stress =        0.00 kB


 VOLUME and BASIS-vectors are now :
 -----------------------------------------------------------------------------
  energy-cutoff  :      600.00
  volume of cell :      345.56
      direct lattice vectors                 reciprocal lattice vectors
     6.430546762  0.000000000  0.000000000     0.155507772 -0.000000000  0.000000000
     0.000000000  7.266597455  0.000000000    -0.000000000  0.137615990  0.000000000
     0.000000000  0.000000000  7.395048611     0.000000000  0.000000000  0.135225615

  length of vectors
     6.430546762  7.266597455  7.395048611     0.155507772  0.137615990  0.135225615


 FORCES acting on ions
    electron-ion (+dipol)            ewald-force                    non-local-force                 convergence-correction
 -----------------------------------------------------------------------------------------------
   0.273E-06 0.173E-06 0.118E-06   -.169E-05 -.584E-06 -.275E-05   -.543E-23 0.517E-23 -.143E-23   0.820E-10 -.732E-09 0.114E-08
   0.190E-06 0.265E-06 -.185E-06   -.186E-05 -.519E-05 0.199E-05   -.850E-23 0.877E-23 -.174E-23   -.644E-10 0.715E-09 -.113E-08
   -.159E-06 0.315E-06 -.167E-06   0.157E-05 -.564E-05 0.183E-05   0.414E-23 0.914E-23 -.228E-24   0.644E-10 0.716E-09 -.113E-08
   -.242E-06 0.223E-06 0.999E-07   0.141E-05 -.103E-05 -.259E-05   0.528E-23 -.503E-23 0.767E-24   -.820E-10 -.731E-09 0.114E-08
   -.742E-06 0.432E+01 -.515E+01   0.672E-05 -.450E+01 0.616E+01   0.289E-19 0.161E+00 -.104E+01   -.146E-09 0.226E-05 -.113E-05
   0.242E-07 -.432E+01 0.515E+01   -.222E-06 0.450E+01 -.616E+01   -.341E-20 -.161E+00 0.104E+01   0.139E-09 -.226E-05 0.114E-05
   0.242E-07 0.432E+01 0.515E+01   -.222E-06 -.450E+01 -.616E+01   -.864E-20 0.161E+00 0.104E+01   0.139E-09 0.226E-05 0.113E-05
   -.742E-06 -.432E+01 -.515E+01   0.672E-05 0.450E+01 0.616E+01   -.977E-20 -.161E+00 -.104E+01   -.146E-09 -.226E-05 -.113E-05
   -.885E-06 0.440E+01 0.687E+01   0.833E-05 -.425E+01 -.690E+01   -.111E-18 -.120E+00 0.760E-02   0.194E-09 0.205E-05 0.188E-06
   -.538E-07 -.440E+01 -.687E+01   0.491E-06 0.425E+01 0.690E+01   -.151E-18 0.120E+00 -.760E-02   -.188E-09 -.204E-05 -.176E-06
   -.538E-07 0.440E+01 -.687E+01   0.491E-06 -.425E+01 0.690E+01   -.553E-18 -.120E+00 -.760E-02   -.188E-09 0.204E-05 -.191E-06
   -.885E-06 -.440E+01 0.687E+01   0.833E-05 0.425E+01 -.690E+01   -.557E-18 0.120E+00 0.760E-02   0.194E-09 -.205E-05 0.179E-06
   -.600E+02 0.954E+02 -.172E+01   0.785E+02 -.119E+03 0.215E+01   -.185E+02 0.234E+02 -.440E+00   -.132E-04 0.170E-04 0.207E-05
   0.600E+02 -.954E+02 -.172E+01   -.785E+02 0.119E+03 0.215E+01   0.185E+02 -.234E+02 -.440E+00   0.132E-04 -.170E-04 0.209E-05
   0.600E+02 0.954E+02 0.172E+01   -.785E+02 -.119E+03 -.215E+01   0.185E+02 0.234E+02 0.440E+00   0.132E-04 0.170E-04 -.207E-05
   -.600E+02 -.954E+02 0.172E+01   0.785E+02 0.119E+03 -.215E+01   -.185E+02 -.234E+02 0.440E+00   -.132E-04 -.170E-04 -.209E-05
   0.600E+02 -.954E+02 0.172E+01   -.785E+02 0.119E+03 -.215E+01   0.185E+02 -.234E+02 0.440E+00   0.132E-04 -.170E-04 -.209E-05
   0.600E+02 0.954E+02 -.172E+01   -.785E+02 -.119E+03 0.215E+01   0.185E+02 0.234E+02 -.440E+00   0.132E-04 0.170E-04 0.207E-05
   -.600E+02 -.954E+02 -.172E+01   0.785E+02 0.119E+03 0.215E+01   -.185E+02 -.234E+02 -.440E+00   -.132E-04 -.170E-04 0.209E-05
   -.600E+02 0.954E+02 0.172E+01   0.785E+02 -.119E+03 -.215E+01   -.185E+02 0.234E+02 0.440E+00   -.132E-04 0.170E-04 -.207E-05
   -.350E-06 0.491E+02 0.156E+02   0.318E-05 -.545E+02 -.246E+02   0.642E-19 0.545E+01 0.894E+01   -.286E-09 0.101E-04 0.116E-04
   0.393E-07 -.491E+02 -.156E+02   -.360E-06 0.545E+02 0.246E+02   -.565E-19 -.545E+01 -.894E+01   0.274E-09 -.101E-04 -.116E-04
   0.393E-07 0.491E+02 -.156E+02   -.360E-06 -.545E+02 0.246E+02   -.282E-18 0.545E+01 -.894E+01   0.274E-09 0.101E-04 -.116E-04
   -.350E-06 -.491E+02 0.156E+02   0.318E-05 0.545E+02 -.246E+02   -.304E-18 -.545E+01 0.894E+01   -.286E-09 -.101E-04 0.116E-04
   -.220E-06 -.280E+02 -.108E+03   0.199E-05 0.397E+02 0.135E+03   0.235E-19 -.117E+02 -.275E+02   -.280E-09 -.109E-04 -.227E-04
   0.346E-07 0.280E+02 0.108E+03   -.324E-06 -.397E+02 -.135E+03   -.694E-19 0.117E+02 0.275E+02   0.280E-09 0.108E-04 0.227E-04
   0.346E-07 -.280E+02 0.108E+03   -.324E-06 0.397E+02 -.135E+03   0.440E-19 -.117E+02 0.275E+02   0.280E-09 -.108E-04 0.227E-04
   -.220E-06 0.280E+02 -.108E+03   0.199E-05 -.397E+02 0.135E+03   0.113E-19 0.117E+02 -.275E+02   -.280E-09 0.109E-04 -.227E-04
   0.333E-07 -.184E+02 -.109E+03   -.313E-06 0.247E+02 0.138E+03   0.147E-18 -.627E+01 -.283E+02   0.280E-09 -.608E-05 -.136E-04
   -.177E-06 0.184E+02 0.109E+03   0.162E-05 -.247E+02 -.138E+03   -.139E-18 0.627E+01 0.283E+02   -.278E-09 0.610E-05 0.136E-04
   -.177E-06 -.184E+02 0.109E+03   0.162E-05 0.247E+02 -.138E+03   0.653E-20 -.627E+01 0.283E+02   -.278E-09 -.610E-05 0.136E-04
   0.333E-07 0.184E+02 -.109E+03   -.313E-06 -.247E+02 0.138E+03   -.647E-19 0.627E+01 -.283E+02   0.280E-09 0.608E-05 -.136E-04
 -----------------------------------------------------------------------------------------------
   -.157E-03 0.130E-03 0.857E-04   -.283E-13 0.604E-13 0.853E-13   0.355E-14 0.799E-14 0.355E-14   0.716E-11 -.331E-09 -.227E-09
 
 
 POSITION                                       TOTAL-FORCE (eV/Angst)
 -----------------------------------------------------------------------------------
     -0.00000     -0.00000     -0.00000        -0.000000      0.000000      0.000000
      3.21527      3.63330      3.69752        -0.000000     -0.000000      0.000000
      0.00000      3.63330      3.69752        -0.000000     -0.000000     -0.000000
      3.21527      0.00000      0.00000        -0.000000      0.000000     -0.000000
      4.82291      2.02117      6.20115        -0.000000     -0.001158      0.001789
      1.60764      5.24543      1.19390        -0.000000      0.001158     -0.001789
      1.60764      5.65447      4.89143        -0.000000     -0.001158     -0.001789
      4.82291      1.61213      2.50362        -0.000000      0.001158      0.001789
      1.60764      2.68630      6.46175        -0.000000     -0.000341     -0.000273
      4.82291      4.58030      0.93330        -0.000000      0.000341      0.000273
      4.82291      6.31960      4.63082        -0.000000     -0.000341      0.000273
      1.60764      0.94700      2.76422        -0.000000      0.000341     -0.000273
      6.06501      5.40594      4.64360         0.001383     -0.001378      0.000038
      3.58081      5.49396      0.94608        -0.001383      0.001378      0.000038
      0.36553      1.77264      6.44897        -0.001383     -0.001378     -0.000038
      2.84974      1.86066      2.75145         0.001383      0.001378     -0.000038
      0.36553      1.86066      2.75145        -0.001383      0.001378     -0.000038
      3.58081      5.40594      4.64360        -0.001383     -0.001378      0.000038
      6.06501      5.49396      0.94608         0.001383      0.001378      0.000038
      2.84974      1.77264      6.44897         0.001383     -0.001378     -0.000038
      4.82291      1.13468      0.80533        -0.000000     -0.001214     -0.001774
      1.60764      6.13192      6.58972        -0.000000      0.001214      0.001774
      1.60764      4.76798      2.89220        -0.000000     -0.001214      0.001774
      4.82291      2.49862      4.50285        -0.000000      0.001214     -0.001774
      4.82291      7.24054      5.88073        -0.000000      0.001100      0.002152
      1.60764      0.02606      1.51431        -0.000000     -0.001100     -0.002152
      1.60764      3.60724      5.21184        -0.000000      0.001100     -0.002152
      4.82291      3.65936      2.18321        -0.000000     -0.001100      0.002152
      1.60764      3.51695      0.37129        -0.000000      0.000605      0.001563
      4.82291      3.74965      7.02376        -0.000000     -0.000605     -0.001563
      4.82291      7.15024      3.32624        -0.000000      0.000605     -0.001563
      1.60764      0.11635      4.06881        -0.000000     -0.000605      0.001563
 -----------------------------------------------------------------------------------
    total drift:                               -0.000157      0.000130      0.000086


--------------------------------------------------------------------------------------------------------



  FREE ENERGIE OF THE ION-ELECTRON SYSTEM (eV)
  ---------------------------------------------------
  free  energy   TOTEN  =      -246.43122207 eV

  energy  without entropy=     -246.43122207  energy(sigma->0) =     -246.43122207
 
 d Force =-0.8444673E-07[-0.101E-05, 0.838E-06]  d Energy = 0.6658470E-05-0.674E-05
 d Force =-0.6262204E-01[-0.626E-01,-0.626E-01]  d Ewald  = 0.2472799E+00-0.310E+00


--------------------------------------------------------------------------------------------------------


    POTLOK:  cpu time      0.0489: real time      0.0490


--------------------------------------------------------------------------------------------------------


 stress matrix after NEB project (eV)
     -0.01505      0.00000      0.00000
      0.00000     -0.01265      0.00000
      0.00000      0.00000     -0.00430
  FORCES: max atom, RMS     0.002417    0.001790
  FORCE total and by dimension    0.010124    0.002152
  Stress total and by dimension    0.020129    0.015053
 Steepest descent step on ions:
 trial-energy change:   -0.000007  1 .order   -0.000005   -0.000011   -0.000000
  (g-gl).g = 0.106E-04      g.g   = 0.106E-04  gl.gl    = 0.000E+00
 g(Force)  = 0.838E-06   g(Stress)= 0.975E-05 ortho     = 0.000E+00
 gamma     =   0.00000
 trial     =   1.00000
 opt step  =   1.02062  (harmonic =   1.03526) maximal distance =0.00003432
 next E    =  -246.431222   (d E  =  -0.00001)


--------------------------------------------------------------------------------------------------------


    WAVPRE:  cpu time      0.0090: real time      0.0151
    FEWALD:  cpu time      0.0004: real time      0.0004
    GENKIN:  cpu time      0.0079: real time      0.0080
    ORTHCH:  cpu time      0.1453: real time      0.1458
     LOOP+:  cpu time     28.8292: real time     29.1144


--------------------------------------- Ionic step        3  -------------------------------------------




--------------------------------------- Iteration      3(   1)  ---------------------------------------


    POTLOK:  cpu time      0.0316: real time      0.0318
    SETDIJ:  cpu time      0.0083: real time      0.0083
     EDDAV:  cpu time      2.7965: real time      2.8108
       DOS:  cpu time      0.0011: real time      0.0011
    CHARGE:  cpu time      0.1114: real time      0.1117
    MIXING:  cpu time      0.0010: real time      0.0010
    --------------------------------------------
      LOOP:  cpu time      2.9499: real time      2.9647

 eigenvalue-minimisations  :  6408
 total energy-change (2. order) : 0.1145505E-04  (-0.1721902E-07)
 number of electron     160.0000022 magnetization      -0.0000000
 augmentation part       15.0597662 magnetization       0.0000000

 Broyden mixing:
  rms(total) = 0.78945E-04    rms(broyden)= 0.78925E-04
  rms(prec ) = 0.99000E-04
  weight for this iteration     100.00

 Free energy of the ion-electron system (eV)
  ---------------------------------------------------
  alpha Z        PSCENC =       419.63323011
  Ewald energy   TEWEN  =     -7012.28068898
  -Hartree energ DENC   =     -3139.50133090
  -exchange      EXHF   =         0.00000000
  -V(xc)+E(xc)   XCENC  =       437.02326455
  PAW double counting   =     21471.32044308   -21296.01115879
  entropy T*S    EENTRO =        -0.00000000
  eigenvalues    EBANDS =      -873.60863432
  atomic energy  EATOM  =      9751.78041952
  Solvation  Ediel_sol  =         0.00000000
  ---------------------------------------------------
  free energy    TOTEN  =      -241.64445573 eV

  energy without entropy =     -241.64445573  energy(sigma->0) =     -241.64445573


--------------------------------------------------------------------------------------------------------




--------------------------------------- Iteration      3(   2)  ---------------------------------------


    POTLOK:  cpu time      0.0376: real time      0.0377
    SETDIJ:  cpu time      0.0083: real time      0.0083
     EDDAV:  cpu time      1.9837: real time      1.9912
       DOS:  cpu time      0.0010: real time      0.0010
    CHARGE:  cpu time      0.1291: real time      0.1307
    MIXING:  cpu time      0.0009: real time      0.0009
    --------------------------------------------
      LOOP:  cpu time      2.1606: real time      2.1699

 eigenvalue-minimisations  :  3760
 total energy-change (2. order) :-0.2213710E-07  (-0.1605822E-08)
 number of electron     160.0000022 magnetization      -0.0000000
 augmentation part       15.0597225 magnetization      -0.0000000

 Broyden mixing:
  rms(total) = 0.72092E-04    rms(broyden)= 0.72091E-04
  rms(prec ) = 0.83418E-04
  weight for this iteration     100.00

 eigenvalues of (default mixing * dielectric matrix)
  average eigenvalue GAMMA=   0.5613
  0.5613

 Free energy of the ion-electron system (eV)
  ---------------------------------------------------
  alpha Z        PSCENC =       419.63323011
  Ewald energy   TEWEN  =     -7012.28068898
  -Hartree energ DENC   =     -3139.49621886
  -exchange      EXHF   =         0.00000000
  -V(xc)+E(xc)   XCENC  =       437.02290309
  PAW double counting   =     21471.41766723   -21296.10838298
  entropy T*S    EENTRO =        -0.00000000
  eigenvalues    EBANDS =      -873.61338488
  atomic energy  EATOM  =      9751.78041952
  Solvation  Ediel_sol  =         0.00000000
  ---------------------------------------------------
  free energy    TOTEN  =      -241.64445576 eV

  energy without entropy =     -241.64445576  energy(sigma->0) =     -241.64445576


--------------------------------------------------------------------------------------------------------




--------------------------------------- Iteration      3(   3)  ---------------------------------------


    POTLOK:  cpu time      0.0316: real time      0.0317
    SETDIJ:  cpu time      0.0084: real time      0.0085
     EDDAV:  cpu time      1.8714: real time      1.8786
       DOS:  cpu time      0.0011: real time      0.0011
    --------------------------------------------
      LOOP:  cpu time      1.9125: real time      1.9198

 eigenvalue-minimisations  :  3072
 total energy-change (2. order) :-0.1749868E-08  (-0.9871536E-09)
 number of electron     160.0000022 magnetization      -0.0000000
 augmentation part       15.0597225 magnetization      -0.0000000

 Free energy of the ion-electron system (eV)
  ---------------------------------------------------
  alpha Z        PSCENC =       419.63323011
  Ewald energy   TEWEN  =     -7012.28068898
  -Hartree energ DENC   =     -3139.49608165
  -exchange      EXHF   =         0.00000000
  -V(xc)+E(xc)   XCENC  =       437.02292582
  PAW double counting   =     21471.44549730   -21296.13618588
  entropy T*S    EENTRO =        -0.00000000
  eigenvalues    EBANDS =      -873.61357199
  atomic energy  EATOM  =      9751.78041952
  Solvation  Ediel_sol  =         0.00000000
  ---------------------------------------------------
  free energy    TOTEN  =      -241.64445576 eV

  energy without entropy =     -241.64445576  energy(sigma->0) =     -241.64445576


--------------------------------------------------------------------------------------------------------




 average (electrostatic) potential at core
  the test charge radii are     0.9748  1.2598  0.9587  0.7215
  (the norm of the test charge is              1.0000)
       1 -25.7546       2 -25.7546       3 -25.7546       4 -25.7546       5 -28.0297
       6 -28.0297       7 -28.0297       8 -28.0297       9 -87.6993      10 -87.6993
      11 -87.6993      12 -87.6993      13 -72.6903      14 -72.6903      15 -72.6903
      16 -72.6903      17 -72.6903      18 -72.6903      19 -72.6903      20 -72.6903
      21 -72.0173      22 -72.0173      23 -72.0173      24 -72.0173      25 -72.7154
      26 -72.7154      27 -72.7154      28 -72.7154      29 -72.7768      30 -72.7768
      31 -72.7768      32 -72.7768
 
 
 
 E-fermi :   1.4850     XC(G=0): -10.0418     alpha+bet :-10.7894

 Fermi energy:         1.4850484227

 spin component 1

 k-point     1 :       0.0000    0.0000    0.0000
  band No.  band energies     occupation 
      1     -19.2071      1.00000
      2     -19.0084      1.00000
      3     -18.9897      1.00000
      4     -18.9567      1.00000
      5     -16.7196      1.00000
      6     -16.6980      1.00000
      7     -16.6224      1.00000
      8     -16.5450      1.00000
      9     -16.5235      1.00000
     10     -16.4943      1.00000
     11     -16.4777      1.00000
     12     -16.4659      1.00000
     13     -16.4563      1.00000
     14     -16.4500      1.00000
     15     -16.4369      1.00000
     16     -16.4255      1.00000
     17     -14.7431      1.00000
     18     -14.7411      1.00000
     19     -14.2791      1.00000
     20     -14.2446      1.00000
     21      -6.9954      1.00000
     22      -6.7334      1.00000
     23      -6.5982      1.00000
     24      -6.2872      1.00000
     25      -4.7626      1.00000
     26      -4.6899      1.00000
     27      -4.6104      1.00000
     28      -4.4694      1.00000
     29      -4.4416      1.00000
     30      -4.1742      1.00000
     31      -4.1599      1.00000
     32      -4.0206      1.00000
     33      -3.9088      1.00000
     34      -3.9004      1.00000
     35      -3.7598      1.00000
     36      -3.6827      1.00000
     37      -2.4575      1.00000
     38      -2.3929      1.00000
     39      -2.3754      1.00000
     40      -2.2480      1.00000
     41      -2.2326      1.00000
     42      -2.1321      1.00000
     43      -1.9662      1.00000
     44      -1.8612      1.00000
     45      -1.7522      1.00000
     46      -1.6604      1.00000
     47      -1.6364      1.00000
     48      -1.4427      1.00000
     49      -1.3301      1.00000
     50      -1.1735      1.00000
     51      -1.1590      1.00000
     52      -1.1223      1.00000
     53      -1.1151      1.00000
     54      -1.0727      1.00000
     55      -0.7252      1.00000
     56      -0.7098      1.00000
     57      -0.5298      1.00000
     58      -0.4444      1.00000
     59      -0.3847      1.00000
     60      -0.2780      1.00000
     61      -0.2343      1.00000
     62      -0.1750      1.00000
     63      -0.1652      1.00000
     64      -0.1562      1.00000
     65       0.1344      1.00000
     66       0.1839      1.00000
     67       0.2154      1.00000
     68       0.2197      1.00000
     69       0.3246      1.00000
     70       0.3359      1.00000
     71       0.3943      1.00000
     72       0.4114      1.00000
     73       0.5167      1.00000
     74       0.6127      1.00000
     75       0.7721      1.00000
     76       0.7836      1.00000
     77       0.8395      1.00000
     78       0.8998      1.00000
     79       1.0370      1.00000
     80       1.1780      1.00000
     81       4.1436      0.00000
     82       4.2773      0.00000
     83       4.4115      0.00000
     84       4.5962      0.00000
     85       4.7089      0.00000
     86       4.7529      0.00000
     87       4.7616      0.00000
     88       4.8106      0.00000
     89       4.8945      0.00000
     90       4.9523      0.00000
     91       5.5293      0.00000
     92       5.5559      0.00000
     93       5.7078      0.00000
     94       5.9401      0.00000
     95       6.2599      0.00000
     96       6.4700      0.00000
     97       6.6175      0.00000
     98       6.7291      0.00000
     99       7.6556      0.00000
    100       7.9905      0.00000
    101       7.9958      0.00000
    102      10.2674      0.00000
    103      10.2864      0.00000
    104      10.5020      0.00000
    105      10.6590      0.00000
    106      10.6690      0.00000
    107      10.8958      0.00000
    108      10.9966      0.00000
    109      11.0177      0.00000
    110      11.3537      0.00000
    111      11.4886      0.00000
    112      11.5638      0.00000
    113      11.7818      0.00000
    114      11.8066      0.00000
    115      11.9797      0.00000
    116      12.2269      0.00000

 k-point     2 :       0.2500    0.0000    0.0000
  band No.  band energies     occupation 
      1     -19.1625      1.00000
      2     -19.0186      1.00000
      3     -18.9655      1.00000
      4     -18.9416      1.00000
      5     -16.7387      1.00000
      6     -16.7126      1.00000
      7     -16.6720      1.00000
      8     -16.5533      1.00000
      9     -16.5371      1.00000
     10     -16.5238      1.00000
     11     -16.4874      1.00000
     12     -16.4680      1.00000
     13     -16.4661      1.00000
     14     -16.4578      1.00000
     15     -16.4447      1.00000
     16     -16.4218      1.00000
     17     -14.7365      1.00000
     18     -14.7340      1.00000
     19     -14.2741      1.00000
     20     -14.2498      1.00000
     21      -6.8573      1.00000
     22      -6.5720      1.00000
     23      -6.5624      1.00000
     24      -6.2017      1.00000
     25      -4.7050      1.00000
     26      -4.6864      1.00000
     27      -4.6630      1.00000
     28      -4.3670      1.00000
     29      -4.3245      1.00000
     30      -4.2402      1.00000
     31      -4.1958      1.00000
     32      -3.9799      1.00000
     33      -3.9071      1.00000
     34      -3.8203      1.00000
     35      -3.6392      1.00000
     36      -3.6047      1.00000
     37      -2.4279      1.00000
     38      -2.4201      1.00000
     39      -2.4141      1.00000
     40      -2.2444      1.00000
     41      -2.1972      1.00000
     42      -2.1145      1.00000
     43      -2.0192      1.00000
     44      -1.9264      1.00000
     45      -1.7886      1.00000
     46      -1.6983      1.00000
     47      -1.6961      1.00000
     48      -1.4629      1.00000
     49      -1.4625      1.00000
     50      -1.3322      1.00000
     51      -1.2997      1.00000
     52      -1.1998      1.00000
     53      -1.1928      1.00000
     54      -0.7642      1.00000
     55      -0.7620      1.00000
     56      -0.7345      1.00000
     57      -0.6335      1.00000
     58      -0.5256      1.00000
     59      -0.3770      1.00000
     60      -0.2896      1.00000
     61      -0.2832      1.00000
     62      -0.2125      1.00000
     63      -0.1716      1.00000
     64      -0.0954      1.00000
     65      -0.0318      1.00000
     66       0.0317      1.00000
     67       0.1680      1.00000
     68       0.2022      1.00000
     69       0.2821      1.00000
     70       0.3156      1.00000
     71       0.3555      1.00000
     72       0.3561      1.00000
     73       0.4966      1.00000
     74       0.5958      1.00000
     75       0.7102      1.00000
     76       0.7962      1.00000
     77       0.8180      1.00000
     78       0.9130      1.00000
     79       0.9963      1.00000
     80       1.0549      1.00000
     81       4.1610      0.00000
     82       4.2771      0.00000
     83       4.3274      0.00000
     84       4.4878      0.00000
     85       4.6043      0.00000
     86       4.7444      0.00000
     87       4.7784      0.00000
     88       4.8034      0.00000
     89       4.8135      0.00000
     90       4.9415      0.00000
     91       5.4513      0.00000
     92       5.4857      0.00000
     93       6.1272      0.00000
     94       6.3044      0.00000
     95       6.5451      0.00000
     96       6.5592      0.00000
     97       6.7780      0.00000
     98       6.8107      0.00000
     99       7.8518      0.00000
    100       8.0691      0.00000
    101       8.3360      0.00000
    102      10.1987      0.00000
    103      10.2850      0.00000
    104      10.3509      0.00000
    105      10.6717      0.00000
    106      10.7953      0.00000
    107      10.9816      0.00000
    108      11.0733      0.00000
    109      11.1161      0.00000
    110      11.3006      0.00000
    111      11.4332      0.00000
    112      11.5654      0.00000
    113      11.8706      0.00000
    114      11.9174      0.00000
    115      11.9579      0.00000
    116      12.0438      0.00000

 k-point     3 :       0.5000    0.0000    0.0000
  band No.  band energies     occupation 
      1     -19.0732      1.00000
      2     -19.0732      1.00000
      3     -18.9333      1.00000
      4     -18.9333      1.00000
      5     -16.7264      1.00000
      6     -16.7264      1.00000
      7     -16.6964      1.00000
      8     -16.6964      1.00000
      9     -16.5235      1.00000
     10     -16.5235      1.00000
     11     -16.4737      1.00000
     12     -16.4737      1.00000
     13     -16.4708      1.00000
     14     -16.4708      1.00000
     15     -16.4351      1.00000
     16     -16.4351      1.00000
     17     -14.7288      1.00000
     18     -14.7288      1.00000
     19     -14.2621      1.00000
     20     -14.2621      1.00000
     21      -6.6351      1.00000
     22      -6.6351      1.00000
     23      -6.2573      1.00000
     24      -6.2573      1.00000
     25      -4.7269      1.00000
     26      -4.7269      1.00000
     27      -4.4286      1.00000
     28      -4.4286      1.00000
     29      -4.2017      1.00000
     30      -4.2017      1.00000
     31      -4.0782      1.00000
     32      -4.0782      1.00000
     33      -3.6940      1.00000
     34      -3.6940      1.00000
     35      -3.6811      1.00000
     36      -3.6811      1.00000
     37      -2.4209      1.00000
     38      -2.4209      1.00000
     39      -2.3649      1.00000
     40      -2.3649      1.00000
     41      -2.1855      1.00000
     42      -2.1855      1.00000
     43      -2.0021      1.00000
     44      -2.0021      1.00000
     45      -1.6946      1.00000
     46      -1.6946      1.00000
     47      -1.6395      1.00000
     48      -1.6395      1.00000
     49      -1.5546      1.00000
     50      -1.5546      1.00000
     51      -1.4530      1.00000
     52      -1.4530      1.00000
     53      -0.8311      1.00000
     54      -0.8310      1.00000
     55      -0.8165      1.00000
     56      -0.8165      1.00000
     57      -0.7346      1.00000
     58      -0.7346      1.00000
     59      -0.3346      1.00000
     60      -0.3346      1.00000
     61      -0.2838      1.00000
     62      -0.2838      1.00000
     63      -0.2085      1.00000
     64      -0.2085      1.00000
     65       0.0718      1.00000
     66       0.0718      1.00000
     67       0.0872      1.00000
     68       0.0872      1.00000
     69       0.2786      1.00000
     70       0.2786      1.00000
     71       0.3285      1.00000
     72       0.3285      1.00000
     73       0.5478      1.00000
     74       0.5478      1.00000
     75       0.7860      1.00000
     76       0.7860      1.00000
     77       0.8897      1.00000
     78       0.8897      1.00000
     79       0.9047      1.00000
     80       0.9047      1.00000
     81       4.2623      0.00000
     82       4.2623      0.00000
     83       4.2805      0.00000
     84       4.2805      0.00000
     85       4.5618      0.00000
     86       4.5618      0.00000
     87       4.8039      0.00000
     88       4.8039      0.00000
     89       4.8887      0.00000
     90       4.8887      0.00000
     91       5.4113      0.00000
     92       5.4113      0.00000
     93       6.5315      0.00000
     94       6.5315      0.00000
     95       6.6910      0.00000
     96       6.6910      0.00000
     97       6.9424      0.00000
     98       6.9424      0.00000
     99       8.1451      0.00000
    100       8.1451      0.00000
    101       9.2454      0.00000
    102       9.2454      0.00000
    103      10.3404      0.00000
    104      10.3404      0.00000
    105      10.8538      0.00000
    106      10.8538      0.00000
    107      11.1208      0.00000
    108      11.1208      0.00000
    109      11.1820      0.00000
    110      11.1820      0.00000
    111      11.5624      0.00000
    112      11.5624      0.00000
    113      11.8022      0.00000
    114      11.8022      0.00000
    115      12.1657      0.00000
    116      12.1658      0.00000

 k-point     4 :       0.0000    0.3333    0.0000
  band No.  band energies     occupation 
      1     -19.1596      1.00000
      2     -19.0599      1.00000
      3     -18.9804      1.00000
      4     -18.9634      1.00000
      5     -16.7318      1.00000
      6     -16.6586      1.00000
      7     -16.6132      1.00000
      8     -16.5630      1.00000
      9     -16.5284      1.00000
     10     -16.4940      1.00000
     11     -16.4898      1.00000
     12     -16.4762      1.00000
     13     -16.4468      1.00000
     14     -16.4441      1.00000
     15     -16.4424      1.00000
     16     -16.4370      1.00000
     17     -14.7363      1.00000
     18     -14.7346      1.00000
     19     -14.2712      1.00000
     20     -14.2539      1.00000
     21      -6.8968      1.00000
     22      -6.6606      1.00000
     23      -6.6314      1.00000
     24      -6.4506      1.00000
     25      -4.6997      1.00000
     26      -4.6560      1.00000
     27      -4.4679      1.00000
     28      -4.3714      1.00000
     29      -4.3401      1.00000
     30      -4.2363      1.00000
     31      -4.1905      1.00000
     32      -4.0564      1.00000
     33      -4.0041      1.00000
     34      -3.9591      1.00000
     35      -3.9442      1.00000
     36      -3.8202      1.00000
     37      -2.5089      1.00000
     38      -2.3675      1.00000
     39      -2.3242      1.00000
     40      -2.2766      1.00000
     41      -2.2401      1.00000
     42      -2.2262      1.00000
     43      -1.8412      1.00000
     44      -1.7369      1.00000
     45      -1.6994      1.00000
     46      -1.5123      1.00000
     47      -1.5029      1.00000
     48      -1.3691      1.00000
     49      -1.3669      1.00000
     50      -1.3531      1.00000
     51      -1.1496      1.00000
     52      -1.1279      1.00000
     53      -1.0780      1.00000
     54      -0.8859      1.00000
     55      -0.8382      1.00000
     56      -0.6638      1.00000
     57      -0.6235      1.00000
     58      -0.5418      1.00000
     59      -0.4610      1.00000
     60      -0.4237      1.00000
     61      -0.1965      1.00000
     62      -0.1674      1.00000
     63      -0.0768      1.00000
     64       0.0266      1.00000
     65       0.0291      1.00000
     66       0.1465      1.00000
     67       0.1499      1.00000
     68       0.2660      1.00000
     69       0.2970      1.00000
     70       0.3189      1.00000
     71       0.3491      1.00000
     72       0.4069      1.00000
     73       0.5047      1.00000
     74       0.5080      1.00000
     75       0.5980      1.00000
     76       0.7397      1.00000
     77       0.9006      1.00000
     78       0.9058      1.00000
     79       1.2277      1.00000
     80       1.2483      1.00000
     81       4.1673      0.00000
     82       4.2435      0.00000
     83       4.4876      0.00000
     84       4.5838      0.00000
     85       4.7492      0.00000
     86       4.7675      0.00000
     87       4.7874      0.00000
     88       4.7921      0.00000
     89       4.8467      0.00000
     90       4.8871      0.00000
     91       5.5402      0.00000
     92       5.5539      0.00000
     93       5.8481      0.00000
     94       5.9553      0.00000
     95       6.2752      0.00000
     96       6.3970      0.00000
     97       6.6362      0.00000
     98       6.6907      0.00000
     99       7.7407      0.00000
    100       7.9111      0.00000
    101       8.4344      0.00000
    102       9.4936      0.00000
    103      10.5005      0.00000
    104      10.6446      0.00000
    105      10.6669      0.00000
    106      10.7204      0.00000
    107      10.7798      0.00000
    108      10.9578      0.00000
    109      11.2815      0.00000
    110      11.3066      0.00000
    111      11.3477      0.00000
    112      11.4209      0.00000
    113      11.5675      0.00000
    114      11.8525      0.00000
    115      11.9535      0.00000
    116      12.0628      0.00000

 k-point     5 :       0.2500    0.3333    0.0000
  band No.  band energies     occupation 
      1     -19.1197      1.00000
      2     -19.0368      1.00000
      3     -18.9774      1.00000
      4     -18.9544      1.00000
      5     -16.7483      1.00000
      6     -16.6962      1.00000
      7     -16.6565      1.00000
      8     -16.6105      1.00000
      9     -16.5212      1.00000
     10     -16.5046      1.00000
     11     -16.4942      1.00000
     12     -16.4838      1.00000
     13     -16.4584      1.00000
     14     -16.4538      1.00000
     15     -16.4362      1.00000
     16     -16.4302      1.00000
     17     -14.7293      1.00000
     18     -14.7276      1.00000
     19     -14.2692      1.00000
     20     -14.2569      1.00000
     21      -6.7676      1.00000
     22      -6.5921      1.00000
     23      -6.5028      1.00000
     24      -6.3629      1.00000
     25      -4.6792      1.00000
     26      -4.6608      1.00000
     27      -4.4479      1.00000
     28      -4.2954      1.00000
     29      -4.2751      1.00000
     30      -4.2128      1.00000
     31      -4.1674      1.00000
     32      -4.0567      1.00000
     33      -4.0122      1.00000
     34      -3.8631      1.00000
     35      -3.8426      1.00000
     36      -3.7579      1.00000
     37      -2.4779      1.00000
     38      -2.4040      1.00000
     39      -2.2942      1.00000
     40      -2.2929      1.00000
     41      -2.1552      1.00000
     42      -2.1171      1.00000
     43      -1.9355      1.00000
     44      -1.9255      1.00000
     45      -1.8130      1.00000
     46      -1.7054      1.00000
     47      -1.6391      1.00000
     48      -1.5296      1.00000
     49      -1.3940      1.00000
     50      -1.3144      1.00000
     51      -1.2266      1.00000
     52      -1.2171      1.00000
     53      -1.0956      1.00000
     54      -0.9076      1.00000
     55      -0.8254      1.00000
     56      -0.7081      1.00000
     57      -0.7070      1.00000
     58      -0.6537      1.00000
     59      -0.2703      1.00000
     60      -0.2449      1.00000
     61      -0.1823      1.00000
     62      -0.1759      1.00000
     63      -0.1229      1.00000
     64      -0.1215      1.00000
     65       0.0308      1.00000
     66       0.0631      1.00000
     67       0.1341      1.00000
     68       0.1380      1.00000
     69       0.2461      1.00000
     70       0.2624      1.00000
     71       0.2967      1.00000
     72       0.3207      1.00000
     73       0.4109      1.00000
     74       0.5364      1.00000
     75       0.6709      1.00000
     76       0.7528      1.00000
     77       0.8827      1.00000
     78       0.9333      1.00000
     79       1.1143      1.00000
     80       1.1294      1.00000
     81       4.1790      0.00000
     82       4.2464      0.00000
     83       4.3887      0.00000
     84       4.4751      0.00000
     85       4.6181      0.00000
     86       4.7029      0.00000
     87       4.7877      0.00000
     88       4.8090      0.00000
     89       4.8231      0.00000
     90       4.8937      0.00000
     91       5.4660      0.00000
     92       5.4841      0.00000
     93       6.2399      0.00000
     94       6.3190      0.00000
     95       6.5542      0.00000
     96       6.5778      0.00000
     97       6.7554      0.00000
     98       6.7731      0.00000
     99       7.8986      0.00000
    100       8.0079      0.00000
    101       8.7149      0.00000
    102       9.6202      0.00000
    103      10.3478      0.00000
    104      10.4120      0.00000
    105      10.6139      0.00000
    106      10.7639      0.00000
    107      10.9900      0.00000
    108      11.0587      0.00000
    109      11.1769      0.00000
    110      11.2780      0.00000
    111      11.3985      0.00000
    112      11.4495      0.00000
    113      11.7715      0.00000
    114      11.7845      0.00000
    115      11.9226      0.00000
    116      12.0899      0.00000

 k-point     6 :       0.5000    0.3333    0.0000
  band No.  band energies     occupation 
      1     -19.0469      1.00000
      2     -19.0469      1.00000
      3     -18.9590      1.00000
      4     -18.9590      1.00000
      5     -16.7237      1.00000
      6     -16.7237      1.00000
      7     -16.7138      1.00000
      8     -16.7138      1.00000
      9     -16.5138      1.00000
     10     -16.5138      1.00000
     11     -16.4812      1.00000
     12     -16.4812      1.00000
     13     -16.4647      1.00000
     14     -16.4647      1.00000
     15     -16.4341      1.00000
     16     -16.4341      1.00000
     17     -14.7219      1.00000
     18     -14.7219      1.00000
     19     -14.2636      1.00000
     20     -14.2636      1.00000
     21      -6.5836      1.00000
     22      -6.5836      1.00000
     23      -6.3239      1.00000
     24      -6.3239      1.00000
     25      -4.6639      1.00000
     26      -4.6639      1.00000
     27      -4.3256      1.00000
     28      -4.3256      1.00000
     29      -4.1441      1.00000
     30      -4.1441      1.00000
     31      -4.0946      1.00000
     32      -4.0946      1.00000
     33      -3.8540      1.00000
     34      -3.8540      1.00000
     35      -3.7709      1.00000
     36      -3.7709      1.00000
     37      -2.3785      1.00000
     38      -2.3785      1.00000
     39      -2.2912      1.00000
     40      -2.2911      1.00000
     41      -2.1942      1.00000
     42      -2.1942      1.00000
     43      -2.0066      1.00000
     44      -2.0066      1.00000
     45      -1.8618      1.00000
     46      -1.8618      1.00000
     47      -1.7277      1.00000
     48      -1.7277      1.00000
     49      -1.4403      1.00000
     50      -1.4403      1.00000
     51      -1.3042      1.00000
     52      -1.3042      1.00000
     53      -0.9960      1.00000
     54      -0.9960      1.00000
     55      -0.8894      1.00000
     56      -0.8894      1.00000
     57      -0.7059      1.00000
     58      -0.7059      1.00000
     59      -0.3511      1.00000
     60      -0.3511      1.00000
     61      -0.1422      1.00000
     62      -0.1422      1.00000
     63      -0.1313      1.00000
     64      -0.1313      1.00000
     65       0.0297      1.00000
     66       0.0297      1.00000
     67       0.1765      1.00000
     68       0.1765      1.00000
     69       0.2681      1.00000
     70       0.2681      1.00000
     71       0.3350      1.00000
     72       0.3350      1.00000
     73       0.4166      1.00000
     74       0.4166      1.00000
     75       0.7558      1.00000
     76       0.7558      1.00000
     77       0.8148      1.00000
     78       0.8148      1.00000
     79       1.0584      1.00000
     80       1.0584      1.00000
     81       4.2712      0.00000
     82       4.2712      0.00000
     83       4.2862      0.00000
     84       4.2862      0.00000
     85       4.5405      0.00000
     86       4.5405      0.00000
     87       4.8049      0.00000
     88       4.8049      0.00000
     89       4.8735      0.00000
     90       4.8735      0.00000
     91       5.4216      0.00000
     92       5.4216      0.00000
     93       6.5675      0.00000
     94       6.5676      0.00000
     95       6.7113      0.00000
     96       6.7113      0.00000
     97       6.9495      0.00000
     98       6.9495      0.00000
     99       8.1328      0.00000
    100       8.1328      0.00000
    101       9.4355      0.00000
    102       9.4355      0.00000
    103      10.1087      0.00000
    104      10.1087      0.00000
    105      10.6250      0.00000
    106      10.6250      0.00000
    107      11.1953      0.00000
    108      11.1953      0.00000
    109      11.3250      0.00000
    110      11.3250      0.00000
    111      11.4105      0.00000
    112      11.4105      0.00000
    113      11.7188      0.00000
    114      11.7188      0.00000
    115      12.0707      0.00000
    116      12.0707      0.00000

 k-point     7 :       0.0000    0.0000    0.3333
  band No.  band energies     occupation 
      1     -19.1632      1.00000
      2     -19.0625      1.00000
      3     -18.9872      1.00000
      4     -18.9534      1.00000
      5     -16.7101      1.00000
      6     -16.6993      1.00000
      7     -16.5805      1.00000
      8     -16.5277      1.00000
      9     -16.5078      1.00000
     10     -16.5035      1.00000
     11     -16.4838      1.00000
     12     -16.4772      1.00000
     13     -16.4618      1.00000
     14     -16.4614      1.00000
     15     -16.4582      1.00000
     16     -16.4435      1.00000
     17     -14.6355      1.00000
     18     -14.6185      1.00000
     19     -14.4044      1.00000
     20     -14.3706      1.00000
     21      -6.9409      1.00000
     22      -6.8137      1.00000
     23      -6.5157      1.00000
     24      -6.3579      1.00000
     25      -4.7075      1.00000
     26      -4.6707      1.00000
     27      -4.4368      1.00000
     28      -4.4071      1.00000
     29      -4.3570      1.00000
     30      -4.2580      1.00000
     31      -4.2175      1.00000
     32      -4.0979      1.00000
     33      -4.0812      1.00000
     34      -4.0430      1.00000
     35      -3.7186      1.00000
     36      -3.6852      1.00000
     37      -2.2784      1.00000
     38      -2.2761      1.00000
     39      -2.2035      1.00000
     40      -2.0668      1.00000
     41      -2.0528      1.00000
     42      -2.0302      1.00000
     43      -2.0061      1.00000
     44      -1.9032      1.00000
     45      -1.7075      1.00000
     46      -1.6618      1.00000
     47      -1.5537      1.00000
     48      -1.4109      1.00000
     49      -1.3618      1.00000
     50      -1.2942      1.00000
     51      -1.1482      1.00000
     52      -1.1321      1.00000
     53      -1.0195      1.00000
     54      -1.0132      1.00000
     55      -1.0017      1.00000
     56      -0.7460      1.00000
     57      -0.7267      1.00000
     58      -0.7141      1.00000
     59      -0.5946      1.00000
     60      -0.4038      1.00000
     61      -0.3429      1.00000
     62      -0.1599      1.00000
     63      -0.1029      1.00000
     64       0.0090      1.00000
     65       0.0156      1.00000
     66       0.0345      1.00000
     67       0.1014      1.00000
     68       0.1474      1.00000
     69       0.2424      1.00000
     70       0.2924      1.00000
     71       0.4739      1.00000
     72       0.5414      1.00000
     73       0.5718      1.00000
     74       0.6804      1.00000
     75       0.7500      1.00000
     76       0.8258      1.00000
     77       0.8529      1.00000
     78       0.8761      1.00000
     79       1.0021      1.00000
     80       1.1832      1.00000
     81       4.1687      0.00000
     82       4.2260      0.00000
     83       4.5458      0.00000
     84       4.6039      0.00000
     85       4.8652      0.00000
     86       4.9141      0.00000
     87       4.9532      0.00000
     88       4.9750      0.00000
     89       5.0005      0.00000
     90       5.1284      0.00000
     91       5.3028      0.00000
     92       5.3566      0.00000
     93       5.7665      0.00000
     94       5.8761      0.00000
     95       6.3257      0.00000
     96       6.4166      0.00000
     97       6.6357      0.00000
     98       6.9657      0.00000
     99       7.2266      0.00000
    100       7.6519      0.00000
    101       8.5081      0.00000
    102       9.5381      0.00000
    103      10.5594      0.00000
    104      10.6301      0.00000
    105      10.6752      0.00000
    106      10.6759      0.00000
    107      11.0822      0.00000
    108      11.1085      0.00000
    109      11.2775      0.00000
    110      11.2777      0.00000
    111      11.3729      0.00000
    112      11.4417      0.00000
    113      11.6976      0.00000
    114      11.7272      0.00000
    115      12.0886      0.00000
    116      12.2339      0.00000

 k-point     8 :       0.2500    0.0000    0.3333
  band No.  band energies     occupation 
      1     -19.1212      1.00000
      2     -19.0286      1.00000
      3     -18.9937      1.00000
      4     -18.9495      1.00000
      5     -16.7280      1.00000
      6     -16.7158      1.00000
      7     -16.6279      1.00000
      8     -16.5653      1.00000
      9     -16.5317      1.00000
     10     -16.5075      1.00000
     11     -16.5027      1.00000
     12     -16.4831      1.00000
     13     -16.4699      1.00000
     14     -16.4664      1.00000
     15     -16.4463      1.00000
     16     -16.4375      1.00000
     17     -14.6283      1.00000
     18     -14.6159      1.00000
     19     -14.3979      1.00000
     20     -14.3741      1.00000
     21      -6.7941      1.00000
     22      -6.6502      1.00000
     23      -6.4819      1.00000
     24      -6.2967      1.00000
     25      -4.6636      1.00000
     26      -4.6302      1.00000
     27      -4.5033      1.00000
     28      -4.3133      1.00000
     29      -4.2924      1.00000
     30      -4.2604      1.00000
     31      -4.2176      1.00000
     32      -4.1099      1.00000
     33      -3.9906      1.00000
     34      -3.9894      1.00000
     35      -3.6435      1.00000
     36      -3.6259      1.00000
     37      -2.3142      1.00000
     38      -2.2711      1.00000
     39      -2.1764      1.00000
     40      -2.0976      1.00000
     41      -2.0899      1.00000
     42      -1.9658      1.00000
     43      -1.9566      1.00000
     44      -1.8361      1.00000
     45      -1.7993      1.00000
     46      -1.6799      1.00000
     47      -1.5292      1.00000
     48      -1.5127      1.00000
     49      -1.4720      1.00000
     50      -1.4247      1.00000
     51      -1.2824      1.00000
     52      -1.2376      1.00000
     53      -1.1331      1.00000
     54      -1.0768      1.00000
     55      -1.0568      1.00000
     56      -0.9291      1.00000
     57      -0.7106      1.00000
     58      -0.6785      1.00000
     59      -0.5437      1.00000
     60      -0.3519      1.00000
     61      -0.3512      1.00000
     62      -0.1810      1.00000
     63      -0.1550      1.00000
     64      -0.0873      1.00000
     65      -0.0522      1.00000
     66       0.0005      1.00000
     67       0.1010      1.00000
     68       0.1089      1.00000
     69       0.3154      1.00000
     70       0.3590      1.00000
     71       0.4622      1.00000
     72       0.5171      1.00000
     73       0.5237      1.00000
     74       0.5560      1.00000
     75       0.6503      1.00000
     76       0.7124      1.00000
     77       0.8599      1.00000
     78       0.8714      1.00000
     79       0.9478      1.00000
     80       1.0637      1.00000
     81       4.1890      0.00000
     82       4.2424      0.00000
     83       4.4597      0.00000
     84       4.5001      0.00000
     85       4.7822      0.00000
     86       4.8604      0.00000
     87       4.8927      0.00000
     88       4.9496      0.00000
     89       5.0249      0.00000
     90       5.1244      0.00000
     91       5.2145      0.00000
     92       5.2545      0.00000
     93       6.1767      0.00000
     94       6.2616      0.00000
     95       6.5629      0.00000
     96       6.5780      0.00000
     97       6.8604      0.00000
     98       6.9997      0.00000
     99       7.4276      0.00000
    100       7.6997      0.00000
    101       8.7969      0.00000
    102       9.7335      0.00000
    103      10.3584      0.00000
    104      10.5313      0.00000
    105      10.7194      0.00000
    106      10.8161      0.00000
    107      10.9500      0.00000
    108      11.1215      0.00000
    109      11.2925      0.00000
    110      11.3161      0.00000
    111      11.3814      0.00000
    112      11.3892      0.00000
    113      11.7057      0.00000
    114      11.8688      0.00000
    115      12.1089      0.00000
    116      12.1776      0.00000

 k-point     9 :       0.5000    0.0000    0.3333
  band No.  band energies     occupation 
      1     -19.0395      1.00000
      2     -19.0395      1.00000
      3     -18.9697      1.00000
      4     -18.9697      1.00000
      5     -16.7079      1.00000
      6     -16.7079      1.00000
      7     -16.6936      1.00000
      8     -16.6936      1.00000
      9     -16.5220      1.00000
     10     -16.5220      1.00000
     11     -16.4949      1.00000
     12     -16.4949      1.00000
     13     -16.4612      1.00000
     14     -16.4612      1.00000
     15     -16.4450      1.00000
     16     -16.4450      1.00000
     17     -14.6174      1.00000
     18     -14.6174      1.00000
     19     -14.3846      1.00000
     20     -14.3846      1.00000
     21      -6.5508      1.00000
     22      -6.5508      1.00000
     23      -6.3650      1.00000
     24      -6.3650      1.00000
     25      -4.6027      1.00000
     26      -4.6027      1.00000
     27      -4.4420      1.00000
     28      -4.4420      1.00000
     29      -4.1824      1.00000
     30      -4.1824      1.00000
     31      -4.1172      1.00000
     32      -4.1172      1.00000
     33      -3.7674      1.00000
     34      -3.7674      1.00000
     35      -3.7514      1.00000
     36      -3.7514      1.00000
     37      -2.2660      1.00000
     38      -2.2660      1.00000
     39      -2.2189      1.00000
     40      -2.2189      1.00000
     41      -2.0419      1.00000
     42      -2.0419      1.00000
     43      -1.8393      1.00000
     44      -1.8393      1.00000
     45      -1.8214      1.00000
     46      -1.8214      1.00000
     47      -1.6090      1.00000
     48      -1.6090      1.00000
     49      -1.4744      1.00000
     50      -1.4744      1.00000
     51      -1.3029      1.00000
     52      -1.3029      1.00000
     53      -1.1586      1.00000
     54      -1.1586      1.00000
     55      -0.9872      1.00000
     56      -0.9872      1.00000
     57      -0.9613      1.00000
     58      -0.9613      1.00000
     59      -0.5663      1.00000
     60      -0.5663      1.00000
     61      -0.3096      1.00000
     62      -0.3096      1.00000
     63      -0.1273      1.00000
     64      -0.1273      1.00000
     65       0.0889      1.00000
     66       0.0889      1.00000
     67       0.2069      1.00000
     68       0.2069      1.00000
     69       0.3019      1.00000
     70       0.3019      1.00000
     71       0.3497      1.00000
     72       0.3497      1.00000
     73       0.6134      1.00000
     74       0.6134      1.00000
     75       0.7380      1.00000
     76       0.7380      1.00000
     77       0.7576      1.00000
     78       0.7576      1.00000
     79       0.8929      1.00000
     80       0.8929      1.00000
     81       4.3054      0.00000
     82       4.3054      0.00000
     83       4.3253      0.00000
     84       4.3253      0.00000
     85       4.7003      0.00000
     86       4.7003      0.00000
     87       4.9303      0.00000
     88       4.9303      0.00000
     89       5.0910      0.00000
     90       5.0910      0.00000
     91       5.1581      0.00000
     92       5.1581      0.00000
     93       6.5734      0.00000
     94       6.5734      0.00000
     95       6.6701      0.00000
     96       6.6701      0.00000
     97       7.1012      0.00000
     98       7.1012      0.00000
     99       7.7384      0.00000
    100       7.7384      0.00000
    101       9.5636      0.00000
    102       9.5636      0.00000
    103      10.1723      0.00000
    104      10.1723      0.00000
    105      10.8627      0.00000
    106      10.8627      0.00000
    107      11.0096      0.00000
    108      11.0096      0.00000
    109      11.2760      0.00000
    110      11.2761      0.00000
    111      11.3982      0.00000
    112      11.3982      0.00000
    113      11.9682      0.00000
    114      11.9682      0.00000
    115      12.0584      0.00000
    116      12.0584      0.00000

 k-point    10 :       0.0000    0.3333    0.3333
  band No.  band energies     occupation 
      1     -19.1318      1.00000
      2     -19.0786      1.00000
      3     -18.9844      1.00000
      4     -18.9685      1.00000
      5     -16.7260      1.00000
      6     -16.6920      1.00000
      7     -16.6006      1.00000
      8     -16.5706      1.00000
      9     -16.5182      1.00000
     10     -16.4984      1.00000
     11     -16.4812      1.00000
     12     -16.4718      1.00000
     13     -16.4503      1.00000
     14     -16.4467      1.00000
     15     -16.4441      1.00000
     16     -16.4269      1.00000
     17     -14.6281      1.00000
     18     -14.6194      1.00000
     19     -14.3939      1.00000
     20     -14.3770      1.00000
     21      -6.8463      1.00000
     22      -6.7233      1.00000
     23      -6.6020      1.00000
     24      -6.4990      1.00000
     25      -4.6923      1.00000
     26      -4.6623      1.00000
     27      -4.4083      1.00000
     28      -4.3215      1.00000
     29      -4.2925      1.00000
     30      -4.2130      1.00000
     31      -4.1756      1.00000
     32      -4.1732      1.00000
     33      -4.0032      1.00000
     34      -3.9730      1.00000
     35      -3.9113      1.00000
     36      -3.8414      1.00000
     37      -2.3273      1.00000
     38      -2.2194      1.00000
     39      -2.1906      1.00000
     40      -2.1434      1.00000
     41      -2.1012      1.00000
     42      -2.0334      1.00000
     43      -1.8535      1.00000
     44      -1.7445      1.00000
     45      -1.7423      1.00000
     46      -1.6042      1.00000
     47      -1.5298      1.00000
     48      -1.4971      1.00000
     49      -1.3808      1.00000
     50      -1.3528      1.00000
     51      -1.3318      1.00000
     52      -1.2191      1.00000
     53      -1.1563      1.00000
     54      -0.9218      1.00000
     55      -0.8213      1.00000
     56      -0.7557      1.00000
     57      -0.7079      1.00000
     58      -0.7026      1.00000
     59      -0.4720      1.00000
     60      -0.4712      1.00000
     61      -0.3602      1.00000
     62      -0.2742      1.00000
     63      -0.1142      1.00000
     64      -0.0834      1.00000
     65       0.0066      1.00000
     66       0.0341      1.00000
     67       0.2072      1.00000
     68       0.2533      1.00000
     69       0.2544      1.00000
     70       0.3046      1.00000
     71       0.4837      1.00000
     72       0.5605      1.00000
     73       0.5777      1.00000
     74       0.6123      1.00000
     75       0.7008      1.00000
     76       0.7364      1.00000
     77       0.8500      1.00000
     78       0.8575      1.00000
     79       1.1528      1.00000
     80       1.2246      1.00000
     81       4.1946      0.00000
     82       4.2330      0.00000
     83       4.5415      0.00000
     84       4.5853      0.00000
     85       4.8649      0.00000
     86       4.9023      0.00000
     87       4.9302      0.00000
     88       4.9757      0.00000
     89       5.0104      0.00000
     90       5.0803      0.00000
     91       5.3258      0.00000
     92       5.3520      0.00000
     93       5.8748      0.00000
     94       5.9260      0.00000
     95       6.3062      0.00000
     96       6.3600      0.00000
     97       6.7190      0.00000
     98       6.8744      0.00000
     99       7.3426      0.00000
    100       7.5475      0.00000
    101       8.8764      0.00000
    102       9.5023      0.00000
    103      10.3644      0.00000
    104      10.4959      0.00000
    105      10.6901      0.00000
    106      10.7166      0.00000
    107      11.0367      0.00000
    108      11.1358      0.00000
    109      11.2834      0.00000
    110      11.3278      0.00000
    111      11.3489      0.00000
    112      11.4245      0.00000
    113      11.4471      0.00000
    114      11.7147      0.00000
    115      11.9565      0.00000
    116      12.1083      0.00000

 k-point    11 :       0.2500    0.3333    0.3333
  band No.  band energies     occupation 
      1     -19.0936      1.00000
      2     -19.0459      1.00000
      3     -18.9845      1.00000
      4     -18.9643      1.00000
      5     -16.7458      1.00000
      6     -16.7201      1.00000
      7     -16.6455      1.00000
      8     -16.6210      1.00000
      9     -16.5170      1.00000
     10     -16.5000      1.00000
     11     -16.4897      1.00000
     12     -16.4783      1.00000
     13     -16.4621      1.00000
     14     -16.4594      1.00000
     15     -16.4338      1.00000
     16     -16.4227      1.00000
     17     -14.6213      1.00000
     18     -14.6149      1.00000
     19     -14.3906      1.00000
     20     -14.3787      1.00000
     21      -6.7169      1.00000
     22      -6.5930      1.00000
     23      -6.5353      1.00000
     24      -6.4231      1.00000
     25      -4.6419      1.00000
     26      -4.6344      1.00000
     27      -4.3750      1.00000
     28      -4.3042      1.00000
     29      -4.2458      1.00000
     30      -4.2332      1.00000
     31      -4.1900      1.00000
     32      -4.0876      1.00000
     33      -4.0072      1.00000
     34      -3.9134      1.00000
     35      -3.7663      1.00000
     36      -3.7551      1.00000
     37      -2.3253      1.00000
     38      -2.2394      1.00000
     39      -2.1927      1.00000
     40      -2.1405      1.00000
     41      -2.0560      1.00000
     42      -2.0154      1.00000
     43      -1.9817      1.00000
     44      -1.8570      1.00000
     45      -1.7992      1.00000
     46      -1.7108      1.00000
     47      -1.5665      1.00000
     48      -1.5527      1.00000
     49      -1.4427      1.00000
     50      -1.3654      1.00000
     51      -1.3438      1.00000
     52      -1.3184      1.00000
     53      -1.2013      1.00000
     54      -1.1778      1.00000
     55      -0.9305      1.00000
     56      -0.8599      1.00000
     57      -0.7104      1.00000
     58      -0.6580      1.00000
     59      -0.5368      1.00000
     60      -0.4477      1.00000
     61      -0.2335      1.00000
     62      -0.1665      1.00000
     63      -0.1414      1.00000
     64      -0.0328      1.00000
     65       0.0182      1.00000
     66       0.0506      1.00000
     67       0.0797      1.00000
     68       0.1809      1.00000
     69       0.2595      1.00000
     70       0.3347      1.00000
     71       0.3803      1.00000
     72       0.4497      1.00000
     73       0.5505      1.00000
     74       0.5571      1.00000
     75       0.6412      1.00000
     76       0.7004      1.00000
     77       0.8227      1.00000
     78       0.8975      1.00000
     79       1.0557      1.00000
     80       1.0945      1.00000
     81       4.2101      0.00000
     82       4.2464      0.00000
     83       4.4504      0.00000
     84       4.4910      0.00000
     85       4.7875      0.00000
     86       4.8208      0.00000
     87       4.9069      0.00000
     88       4.9277      0.00000
     89       5.0281      0.00000
     90       5.0757      0.00000
     91       5.2416      0.00000
     92       5.2624      0.00000
     93       6.2634      0.00000
     94       6.3014      0.00000
     95       6.5664      0.00000
     96       6.5836      0.00000
     97       6.8681      0.00000
     98       6.9439      0.00000
     99       7.4889      0.00000
    100       7.6231      0.00000
    101       9.1195      0.00000
    102       9.6887      0.00000
    103      10.2858      0.00000
    104      10.4335      0.00000
    105      10.6482      0.00000
    106      10.7725      0.00000
    107      10.9440      0.00000
    108      11.0199      0.00000
    109      11.2224      0.00000
    110      11.3123      0.00000
    111      11.4047      0.00000
    112      11.4770      0.00000
    113      11.6195      0.00000
    114      11.8412      0.00000
    115      12.0234      0.00000
    116      12.0909      0.00000

 k-point    12 :       0.5000    0.3333    0.3333
  band No.  band energies     occupation 
      1     -19.0249      1.00000
      2     -19.0249      1.00000
      3     -18.9809      1.00000
      4     -18.9809      1.00000
      5     -16.7294      1.00000
      6     -16.7294      1.00000
      7     -16.7175      1.00000
      8     -16.7175      1.00000
      9     -16.5090      1.00000
     10     -16.5090      1.00000
     11     -16.4847      1.00000
     12     -16.4847      1.00000
     13     -16.4574      1.00000
     14     -16.4574      1.00000
     15     -16.4339      1.00000
     16     -16.4339      1.00000
     17     -14.6127      1.00000
     18     -14.6127      1.00000
     19     -14.3839      1.00000
     20     -14.3839      1.00000
     21      -6.5314      1.00000
     22      -6.5314      1.00000
     23      -6.4047      1.00000
     24      -6.4047      1.00000
     25      -4.5651      1.00000
     26      -4.5651      1.00000
     27      -4.3981      1.00000
     28      -4.3981      1.00000
     29      -4.1207      1.00000
     30      -4.1207      1.00000
     31      -4.0972      1.00000
     32      -4.0972      1.00000
     33      -3.8467      1.00000
     34      -3.8467      1.00000
     35      -3.7443      1.00000
     36      -3.7443      1.00000
     37      -2.2922      1.00000
     38      -2.2922      1.00000
     39      -2.2297      1.00000
     40      -2.2297      1.00000
     41      -2.0569      1.00000
     42      -2.0569      1.00000
     43      -1.9203      1.00000
     44      -1.9203      1.00000
     45      -1.8332      1.00000
     46      -1.8332      1.00000
     47      -1.6512      1.00000
     48      -1.6512      1.00000
     49      -1.5270      1.00000
     50      -1.5270      1.00000
     51      -1.3577      1.00000
     52      -1.3577      1.00000
     53      -1.2524      1.00000
     54      -1.2523      1.00000
     55      -1.0156      1.00000
     56      -1.0155      1.00000
     57      -0.7232      1.00000
     58      -0.7232      1.00000
     59      -0.6096      1.00000
     60      -0.6096      1.00000
     61      -0.2084      1.00000
     62      -0.2084      1.00000
     63      -0.0598      1.00000
     64      -0.0598      1.00000
     65       0.1327      1.00000
     66       0.1327      1.00000
     67       0.2195      1.00000
     68       0.2195      1.00000
     69       0.3107      1.00000
     70       0.3107      1.00000
     71       0.3578      1.00000
     72       0.3578      1.00000
     73       0.5181      1.00000
     74       0.5181      1.00000
     75       0.6411      1.00000
     76       0.6411      1.00000
     77       0.8249      1.00000
     78       0.8249      1.00000
     79       0.9454      1.00000
     80       0.9454      1.00000
     81       4.3008      0.00000
     82       4.3008      0.00000
     83       4.3345      0.00000
     84       4.3345      0.00000
     85       4.6918      0.00000
     86       4.6918      0.00000
     87       4.9207      0.00000
     88       4.9207      0.00000
     89       5.0479      0.00000
     90       5.0479      0.00000
     91       5.1876      0.00000
     92       5.1876      0.00000
     93       6.6106      0.00000
     94       6.6106      0.00000
     95       6.6941      0.00000
     96       6.6941      0.00000
     97       7.0946      0.00000
     98       7.0946      0.00000
     99       7.7241      0.00000
    100       7.7241      0.00000
    101       9.7405      0.00000
    102       9.7405      0.00000
    103      10.1171      0.00000
    104      10.1171      0.00000
    105      10.6547      0.00000
    106      10.6547      0.00000
    107      10.9151      0.00000
    108      10.9151      0.00000
    109      11.3466      0.00000
    110      11.3466      0.00000
    111      11.4445      0.00000
    112      11.4445      0.00000
    113      11.9648      0.00000
    114      11.9648      0.00000
    115      12.1147      0.00000
    116      12.1148      0.00000
 Fermi energy:         1.4850484227

 spin component 2

 k-point     1 :       0.0000    0.0000    0.0000
  band No.  band energies     occupation 
      1     -19.2071      1.00000
      2     -19.0084      1.00000
      3     -18.9897      1.00000
      4     -18.9567      1.00000
      5     -16.7196      1.00000
      6     -16.6980      1.00000
      7     -16.6224      1.00000
      8     -16.5450      1.00000
      9     -16.5235      1.00000
     10     -16.4943      1.00000
     11     -16.4777      1.00000
     12     -16.4659      1.00000
     13     -16.4563      1.00000
     14     -16.4500      1.00000
     15     -16.4369      1.00000
     16     -16.4255      1.00000
     17     -14.7431      1.00000
     18     -14.7411      1.00000
     19     -14.2791      1.00000
     20     -14.2446      1.00000
     21      -6.9954      1.00000
     22      -6.7334      1.00000
     23      -6.5982      1.00000
     24      -6.2872      1.00000
     25      -4.7626      1.00000
     26      -4.6899      1.00000
     27      -4.6104      1.00000
     28      -4.4694      1.00000
     29      -4.4416      1.00000
     30      -4.1742      1.00000
     31      -4.1599      1.00000
     32      -4.0206      1.00000
     33      -3.9088      1.00000
     34      -3.9004      1.00000
     35      -3.7598      1.00000
     36      -3.6827      1.00000
     37      -2.4575      1.00000
     38      -2.3929      1.00000
     39      -2.3754      1.00000
     40      -2.2480      1.00000
     41      -2.2326      1.00000
     42      -2.1321      1.00000
     43      -1.9662      1.00000
     44      -1.8612      1.00000
     45      -1.7522      1.00000
     46      -1.6604      1.00000
     47      -1.6364      1.00000
     48      -1.4427      1.00000
     49      -1.3301      1.00000
     50      -1.1735      1.00000
     51      -1.1590      1.00000
     52      -1.1223      1.00000
     53      -1.1151      1.00000
     54      -1.0727      1.00000
     55      -0.7252      1.00000
     56      -0.7098      1.00000
     57      -0.5298      1.00000
     58      -0.4444      1.00000
     59      -0.3847      1.00000
     60      -0.2780      1.00000
     61      -0.2343      1.00000
     62      -0.1750      1.00000
     63      -0.1652      1.00000
     64      -0.1562      1.00000
     65       0.1344      1.00000
     66       0.1839      1.00000
     67       0.2154      1.00000
     68       0.2197      1.00000
     69       0.3246      1.00000
     70       0.3359      1.00000
     71       0.3943      1.00000
     72       0.4114      1.00000
     73       0.5167      1.00000
     74       0.6127      1.00000
     75       0.7721      1.00000
     76       0.7836      1.00000
     77       0.8395      1.00000
     78       0.8998      1.00000
     79       1.0370      1.00000
     80       1.1780      1.00000
     81       4.1436      0.00000
     82       4.2773      0.00000
     83       4.4115      0.00000
     84       4.5962      0.00000
     85       4.7089      0.00000
     86       4.7529      0.00000
     87       4.7616      0.00000
     88       4.8106      0.00000
     89       4.8945      0.00000
     90       4.9523      0.00000
     91       5.5293      0.00000
     92       5.5559      0.00000
     93       5.7078      0.00000
     94       5.9401      0.00000
     95       6.2599      0.00000
     96       6.4700      0.00000
     97       6.6175      0.00000
     98       6.7291      0.00000
     99       7.6556      0.00000
    100       7.9905      0.00000
    101       7.9958      0.00000
    102      10.2674      0.00000
    103      10.2864      0.00000
    104      10.5020      0.00000
    105      10.6590      0.00000
    106      10.6690      0.00000
    107      10.8958      0.00000
    108      10.9966      0.00000
    109      11.0177      0.00000
    110      11.3537      0.00000
    111      11.4886      0.00000
    112      11.5638      0.00000
    113      11.7818      0.00000
    114      11.8066      0.00000
    115      11.9797      0.00000
    116      12.2272      0.00000

 k-point     2 :       0.2500    0.0000    0.0000
  band No.  band energies     occupation 
      1     -19.1625      1.00000
      2     -19.0186      1.00000
      3     -18.9655      1.00000
      4     -18.9416      1.00000
      5     -16.7387      1.00000
      6     -16.7126      1.00000
      7     -16.6720      1.00000
      8     -16.5533      1.00000
      9     -16.5371      1.00000
     10     -16.5238      1.00000
     11     -16.4874      1.00000
     12     -16.4680      1.00000
     13     -16.4661      1.00000
     14     -16.4578      1.00000
     15     -16.4447      1.00000
     16     -16.4218      1.00000
     17     -14.7365      1.00000
     18     -14.7340      1.00000
     19     -14.2741      1.00000
     20     -14.2498      1.00000
     21      -6.8573      1.00000
     22      -6.5720      1.00000
     23      -6.5624      1.00000
     24      -6.2017      1.00000
     25      -4.7050      1.00000
     26      -4.6864      1.00000
     27      -4.6630      1.00000
     28      -4.3670      1.00000
     29      -4.3245      1.00000
     30      -4.2402      1.00000
     31      -4.1958      1.00000
     32      -3.9799      1.00000
     33      -3.9071      1.00000
     34      -3.8203      1.00000
     35      -3.6392      1.00000
     36      -3.6047      1.00000
     37      -2.4279      1.00000
     38      -2.4201      1.00000
     39      -2.4141      1.00000
     40      -2.2444      1.00000
     41      -2.1972      1.00000
     42      -2.1145      1.00000
     43      -2.0192      1.00000
     44      -1.9264      1.00000
     45      -1.7886      1.00000
     46      -1.6983      1.00000
     47      -1.6961      1.00000
     48      -1.4629      1.00000
     49      -1.4625      1.00000
     50      -1.3322      1.00000
     51      -1.2997      1.00000
     52      -1.1998      1.00000
     53      -1.1928      1.00000
     54      -0.7642      1.00000
     55      -0.7620      1.00000
     56      -0.7345      1.00000
     57      -0.6335      1.00000
     58      -0.5256      1.00000
     59      -0.3770      1.00000
     60      -0.2896      1.00000
     61      -0.2832      1.00000
     62      -0.2125      1.00000
     63      -0.1716      1.00000
     64      -0.0954      1.00000
     65      -0.0318      1.00000
     66       0.0317      1.00000
     67       0.1680      1.00000
     68       0.2022      1.00000
     69       0.2821      1.00000
     70       0.3156      1.00000
     71       0.3555      1.00000
     72       0.3561      1.00000
     73       0.4966      1.00000
     74       0.5958      1.00000
     75       0.7102      1.00000
     76       0.7962      1.00000
     77       0.8180      1.00000
     78       0.9130      1.00000
     79       0.9963      1.00000
     80       1.0549      1.00000
     81       4.1610      0.00000
     82       4.2771      0.00000
     83       4.3274      0.00000
     84       4.4878      0.00000
     85       4.6043      0.00000
     86       4.7444      0.00000
     87       4.7784      0.00000
     88       4.8034      0.00000
     89       4.8135      0.00000
     90       4.9415      0.00000
     91       5.4513      0.00000
     92       5.4857      0.00000
     93       6.1272      0.00000
     94       6.3044      0.00000
     95       6.5451      0.00000
     96       6.5592      0.00000
     97       6.7780      0.00000
     98       6.8107      0.00000
     99       7.8518      0.00000
    100       8.0691      0.00000
    101       8.3360      0.00000
    102      10.1987      0.00000
    103      10.2850      0.00000
    104      10.3509      0.00000
    105      10.6717      0.00000
    106      10.7953      0.00000
    107      10.9816      0.00000
    108      11.0733      0.00000
    109      11.1161      0.00000
    110      11.3006      0.00000
    111      11.4332      0.00000
    112      11.5654      0.00000
    113      11.8706      0.00000
    114      11.9174      0.00000
    115      11.9579      0.00000
    116      12.0438      0.00000

 k-point     3 :       0.5000    0.0000    0.0000
  band No.  band energies     occupation 
      1     -19.0732      1.00000
      2     -19.0732      1.00000
      3     -18.9333      1.00000
      4     -18.9333      1.00000
      5     -16.7264      1.00000
      6     -16.7264      1.00000
      7     -16.6964      1.00000
      8     -16.6964      1.00000
      9     -16.5235      1.00000
     10     -16.5235      1.00000
     11     -16.4737      1.00000
     12     -16.4737      1.00000
     13     -16.4708      1.00000
     14     -16.4708      1.00000
     15     -16.4351      1.00000
     16     -16.4351      1.00000
     17     -14.7288      1.00000
     18     -14.7288      1.00000
     19     -14.2621      1.00000
     20     -14.2621      1.00000
     21      -6.6351      1.00000
     22      -6.6351      1.00000
     23      -6.2573      1.00000
     24      -6.2573      1.00000
     25      -4.7269      1.00000
     26      -4.7269      1.00000
     27      -4.4286      1.00000
     28      -4.4286      1.00000
     29      -4.2017      1.00000
     30      -4.2017      1.00000
     31      -4.0782      1.00000
     32      -4.0782      1.00000
     33      -3.6940      1.00000
     34      -3.6940      1.00000
     35      -3.6811      1.00000
     36      -3.6811      1.00000
     37      -2.4209      1.00000
     38      -2.4209      1.00000
     39      -2.3649      1.00000
     40      -2.3649      1.00000
     41      -2.1855      1.00000
     42      -2.1855      1.00000
     43      -2.0021      1.00000
     44      -2.0021      1.00000
     45      -1.6946      1.00000
     46      -1.6946      1.00000
     47      -1.6395      1.00000
     48      -1.6395      1.00000
     49      -1.5546      1.00000
     50      -1.5546      1.00000
     51      -1.4530      1.00000
     52      -1.4530      1.00000
     53      -0.8311      1.00000
     54      -0.8310      1.00000
     55      -0.8165      1.00000
     56      -0.8165      1.00000
     57      -0.7346      1.00000
     58      -0.7346      1.00000
     59      -0.3346      1.00000
     60      -0.3346      1.00000
     61      -0.2838      1.00000
     62      -0.2838      1.00000
     63      -0.2085      1.00000
     64      -0.2085      1.00000
     65       0.0718      1.00000
     66       0.0718      1.00000
     67       0.0872      1.00000
     68       0.0872      1.00000
     69       0.2786      1.00000
     70       0.2786      1.00000
     71       0.3285      1.00000
     72       0.3285      1.00000
     73       0.5478      1.00000
     74       0.5478      1.00000
     75       0.7860      1.00000
     76       0.7860      1.00000
     77       0.8897      1.00000
     78       0.8897      1.00000
     79       0.9047      1.00000
     80       0.9047      1.00000
     81       4.2623      0.00000
     82       4.2623      0.00000
     83       4.2805      0.00000
     84       4.2805      0.00000
     85       4.5618      0.00000
     86       4.5618      0.00000
     87       4.8039      0.00000
     88       4.8039      0.00000
     89       4.8887      0.00000
     90       4.8887      0.00000
     91       5.4113      0.00000
     92       5.4113      0.00000
     93       6.5315      0.00000
     94       6.5315      0.00000
     95       6.6910      0.00000
     96       6.6910      0.00000
     97       6.9424      0.00000
     98       6.9424      0.00000
     99       8.1451      0.00000
    100       8.1451      0.00000
    101       9.2454      0.00000
    102       9.2454      0.00000
    103      10.3404      0.00000
    104      10.3404      0.00000
    105      10.8538      0.00000
    106      10.8538      0.00000
    107      11.1208      0.00000
    108      11.1208      0.00000
    109      11.1820      0.00000
    110      11.1820      0.00000
    111      11.5624      0.00000
    112      11.5624      0.00000
    113      11.8022      0.00000
    114      11.8022      0.00000
    115      12.1658      0.00000
    116      12.1658      0.00000

 k-point     4 :       0.0000    0.3333    0.0000
  band No.  band energies     occupation 
      1     -19.1596      1.00000
      2     -19.0599      1.00000
      3     -18.9804      1.00000
      4     -18.9634      1.00000
      5     -16.7318      1.00000
      6     -16.6586      1.00000
      7     -16.6132      1.00000
      8     -16.5630      1.00000
      9     -16.5284      1.00000
     10     -16.4940      1.00000
     11     -16.4898      1.00000
     12     -16.4762      1.00000
     13     -16.4468      1.00000
     14     -16.4441      1.00000
     15     -16.4424      1.00000
     16     -16.4370      1.00000
     17     -14.7363      1.00000
     18     -14.7346      1.00000
     19     -14.2712      1.00000
     20     -14.2539      1.00000
     21      -6.8968      1.00000
     22      -6.6606      1.00000
     23      -6.6314      1.00000
     24      -6.4506      1.00000
     25      -4.6997      1.00000
     26      -4.6560      1.00000
     27      -4.4679      1.00000
     28      -4.3714      1.00000
     29      -4.3401      1.00000
     30      -4.2363      1.00000
     31      -4.1905      1.00000
     32      -4.0564      1.00000
     33      -4.0041      1.00000
     34      -3.9591      1.00000
     35      -3.9442      1.00000
     36      -3.8202      1.00000
     37      -2.5089      1.00000
     38      -2.3675      1.00000
     39      -2.3242      1.00000
     40      -2.2766      1.00000
     41      -2.2401      1.00000
     42      -2.2262      1.00000
     43      -1.8412      1.00000
     44      -1.7369      1.00000
     45      -1.6994      1.00000
     46      -1.5123      1.00000
     47      -1.5029      1.00000
     48      -1.3691      1.00000
     49      -1.3669      1.00000
     50      -1.3531      1.00000
     51      -1.1496      1.00000
     52      -1.1279      1.00000
     53      -1.0780      1.00000
     54      -0.8859      1.00000
     55      -0.8382      1.00000
     56      -0.6638      1.00000
     57      -0.6235      1.00000
     58      -0.5418      1.00000
     59      -0.4610      1.00000
     60      -0.4237      1.00000
     61      -0.1965      1.00000
     62      -0.1674      1.00000
     63      -0.0768      1.00000
     64       0.0266      1.00000
     65       0.0291      1.00000
     66       0.1465      1.00000
     67       0.1499      1.00000
     68       0.2660      1.00000
     69       0.2970      1.00000
     70       0.3189      1.00000
     71       0.3491      1.00000
     72       0.4069      1.00000
     73       0.5047      1.00000
     74       0.5080      1.00000
     75       0.5980      1.00000
     76       0.7397      1.00000
     77       0.9006      1.00000
     78       0.9058      1.00000
     79       1.2277      1.00000
     80       1.2483      1.00000
     81       4.1673      0.00000
     82       4.2435      0.00000
     83       4.4876      0.00000
     84       4.5838      0.00000
     85       4.7492      0.00000
     86       4.7675      0.00000
     87       4.7874      0.00000
     88       4.7921      0.00000
     89       4.8467      0.00000
     90       4.8871      0.00000
     91       5.5402      0.00000
     92       5.5539      0.00000
     93       5.8481      0.00000
     94       5.9553      0.00000
     95       6.2752      0.00000
     96       6.3970      0.00000
     97       6.6362      0.00000
     98       6.6907      0.00000
     99       7.7407      0.00000
    100       7.9111      0.00000
    101       8.4344      0.00000
    102       9.4936      0.00000
    103      10.5005      0.00000
    104      10.6446      0.00000
    105      10.6669      0.00000
    106      10.7204      0.00000
    107      10.7798      0.00000
    108      10.9578      0.00000
    109      11.2815      0.00000
    110      11.3066      0.00000
    111      11.3477      0.00000
    112      11.4209      0.00000
    113      11.5675      0.00000
    114      11.8525      0.00000
    115      11.9535      0.00000
    116      12.0628      0.00000

 k-point     5 :       0.2500    0.3333    0.0000
  band No.  band energies     occupation 
      1     -19.1197      1.00000
      2     -19.0368      1.00000
      3     -18.9774      1.00000
      4     -18.9544      1.00000
      5     -16.7483      1.00000
      6     -16.6962      1.00000
      7     -16.6565      1.00000
      8     -16.6105      1.00000
      9     -16.5212      1.00000
     10     -16.5046      1.00000
     11     -16.4942      1.00000
     12     -16.4838      1.00000
     13     -16.4584      1.00000
     14     -16.4538      1.00000
     15     -16.4362      1.00000
     16     -16.4302      1.00000
     17     -14.7293      1.00000
     18     -14.7276      1.00000
     19     -14.2692      1.00000
     20     -14.2569      1.00000
     21      -6.7676      1.00000
     22      -6.5921      1.00000
     23      -6.5028      1.00000
     24      -6.3629      1.00000
     25      -4.6792      1.00000
     26      -4.6608      1.00000
     27      -4.4479      1.00000
     28      -4.2954      1.00000
     29      -4.2751      1.00000
     30      -4.2128      1.00000
     31      -4.1674      1.00000
     32      -4.0567      1.00000
     33      -4.0122      1.00000
     34      -3.8631      1.00000
     35      -3.8426      1.00000
     36      -3.7579      1.00000
     37      -2.4779      1.00000
     38      -2.4040      1.00000
     39      -2.2942      1.00000
     40      -2.2929      1.00000
     41      -2.1552      1.00000
     42      -2.1171      1.00000
     43      -1.9355      1.00000
     44      -1.9255      1.00000
     45      -1.8130      1.00000
     46      -1.7054      1.00000
     47      -1.6391      1.00000
     48      -1.5296      1.00000
     49      -1.3940      1.00000
     50      -1.3144      1.00000
     51      -1.2266      1.00000
     52      -1.2171      1.00000
     53      -1.0956      1.00000
     54      -0.9076      1.00000
     55      -0.8254      1.00000
     56      -0.7081      1.00000
     57      -0.7070      1.00000
     58      -0.6537      1.00000
     59      -0.2703      1.00000
     60      -0.2449      1.00000
     61      -0.1823      1.00000
     62      -0.1759      1.00000
     63      -0.1229      1.00000
     64      -0.1215      1.00000
     65       0.0308      1.00000
     66       0.0631      1.00000
     67       0.1341      1.00000
     68       0.1380      1.00000
     69       0.2461      1.00000
     70       0.2624      1.00000
     71       0.2967      1.00000
     72       0.3207      1.00000
     73       0.4109      1.00000
     74       0.5364      1.00000
     75       0.6709      1.00000
     76       0.7528      1.00000
     77       0.8827      1.00000
     78       0.9333      1.00000
     79       1.1143      1.00000
     80       1.1294      1.00000
     81       4.1790      0.00000
     82       4.2464      0.00000
     83       4.3887      0.00000
     84       4.4751      0.00000
     85       4.6181      0.00000
     86       4.7029      0.00000
     87       4.7877      0.00000
     88       4.8090      0.00000
     89       4.8231      0.00000
     90       4.8937      0.00000
     91       5.4660      0.00000
     92       5.4841      0.00000
     93       6.2399      0.00000
     94       6.3190      0.00000
     95       6.5542      0.00000
     96       6.5778      0.00000
     97       6.7554      0.00000
     98       6.7731      0.00000
     99       7.8986      0.00000
    100       8.0079      0.00000
    101       8.7149      0.00000
    102       9.6202      0.00000
    103      10.3478      0.00000
    104      10.4120      0.00000
    105      10.6139      0.00000
    106      10.7639      0.00000
    107      10.9900      0.00000
    108      11.0587      0.00000
    109      11.1769      0.00000
    110      11.2780      0.00000
    111      11.3985      0.00000
    112      11.4495      0.00000
    113      11.7715      0.00000
    114      11.7845      0.00000
    115      11.9226      0.00000
    116      12.0899      0.00000

 k-point     6 :       0.5000    0.3333    0.0000
  band No.  band energies     occupation 
      1     -19.0469      1.00000
      2     -19.0469      1.00000
      3     -18.9590      1.00000
      4     -18.9590      1.00000
      5     -16.7237      1.00000
      6     -16.7237      1.00000
      7     -16.7138      1.00000
      8     -16.7138      1.00000
      9     -16.5138      1.00000
     10     -16.5138      1.00000
     11     -16.4812      1.00000
     12     -16.4812      1.00000
     13     -16.4647      1.00000
     14     -16.4647      1.00000
     15     -16.4341      1.00000
     16     -16.4341      1.00000
     17     -14.7219      1.00000
     18     -14.7219      1.00000
     19     -14.2636      1.00000
     20     -14.2636      1.00000
     21      -6.5836      1.00000
     22      -6.5836      1.00000
     23      -6.3239      1.00000
     24      -6.3239      1.00000
     25      -4.6639      1.00000
     26      -4.6639      1.00000
     27      -4.3256      1.00000
     28      -4.3256      1.00000
     29      -4.1441      1.00000
     30      -4.1441      1.00000
     31      -4.0946      1.00000
     32      -4.0946      1.00000
     33      -3.8540      1.00000
     34      -3.8540      1.00000
     35      -3.7709      1.00000
     36      -3.7709      1.00000
     37      -2.3785      1.00000
     38      -2.3785      1.00000
     39      -2.2912      1.00000
     40      -2.2911      1.00000
     41      -2.1942      1.00000
     42      -2.1942      1.00000
     43      -2.0066      1.00000
     44      -2.0066      1.00000
     45      -1.8618      1.00000
     46      -1.8618      1.00000
     47      -1.7277      1.00000
     48      -1.7277      1.00000
     49      -1.4403      1.00000
     50      -1.4403      1.00000
     51      -1.3042      1.00000
     52      -1.3042      1.00000
     53      -0.9960      1.00000
     54      -0.9960      1.00000
     55      -0.8894      1.00000
     56      -0.8894      1.00000
     57      -0.7059      1.00000
     58      -0.7059      1.00000
     59      -0.3511      1.00000
     60      -0.3511      1.00000
     61      -0.1422      1.00000
     62      -0.1422      1.00000
     63      -0.1313      1.00000
     64      -0.1313      1.00000
     65       0.0297      1.00000
     66       0.0297      1.00000
     67       0.1765      1.00000
     68       0.1765      1.00000
     69       0.2681      1.00000
     70       0.2681      1.00000
     71       0.3350      1.00000
     72       0.3350      1.00000
     73       0.4166      1.00000
     74       0.4166      1.00000
     75       0.7558      1.00000
     76       0.7558      1.00000
     77       0.8148      1.00000
     78       0.8148      1.00000
     79       1.0584      1.00000
     80       1.0584      1.00000
     81       4.2712      0.00000
     82       4.2712      0.00000
     83       4.2862      0.00000
     84       4.2862      0.00000
     85       4.5405      0.00000
     86       4.5405      0.00000
     87       4.8049      0.00000
     88       4.8049      0.00000
     89       4.8735      0.00000
     90       4.8735      0.00000
     91       5.4216      0.00000
     92       5.4216      0.00000
     93       6.5675      0.00000
     94       6.5676      0.00000
     95       6.7113      0.00000
     96       6.7113      0.00000
     97       6.9495      0.00000
     98       6.9495      0.00000
     99       8.1328      0.00000
    100       8.1328      0.00000
    101       9.4355      0.00000
    102       9.4355      0.00000
    103      10.1087      0.00000
    104      10.1087      0.00000
    105      10.6250      0.00000
    106      10.6250      0.00000
    107      11.1953      0.00000
    108      11.1953      0.00000
    109      11.3250      0.00000
    110      11.3250      0.00000
    111      11.4105      0.00000
    112      11.4105      0.00000
    113      11.7188      0.00000
    114      11.7188      0.00000
    115      12.0707      0.00000
    116      12.0707      0.00000

 k-point     7 :       0.0000    0.0000    0.3333
  band No.  band energies     occupation 
      1     -19.1632      1.00000
      2     -19.0625      1.00000
      3     -18.9872      1.00000
      4     -18.9534      1.00000
      5     -16.7101      1.00000
      6     -16.6993      1.00000
      7     -16.5805      1.00000
      8     -16.5277      1.00000
      9     -16.5078      1.00000
     10     -16.5035      1.00000
     11     -16.4838      1.00000
     12     -16.4772      1.00000
     13     -16.4618      1.00000
     14     -16.4614      1.00000
     15     -16.4582      1.00000
     16     -16.4435      1.00000
     17     -14.6355      1.00000
     18     -14.6185      1.00000
     19     -14.4044      1.00000
     20     -14.3706      1.00000
     21      -6.9409      1.00000
     22      -6.8137      1.00000
     23      -6.5157      1.00000
     24      -6.3579      1.00000
     25      -4.7075      1.00000
     26      -4.6707      1.00000
     27      -4.4368      1.00000
     28      -4.4071      1.00000
     29      -4.3570      1.00000
     30      -4.2580      1.00000
     31      -4.2175      1.00000
     32      -4.0979      1.00000
     33      -4.0812      1.00000
     34      -4.0430      1.00000
     35      -3.7186      1.00000
     36      -3.6852      1.00000
     37      -2.2784      1.00000
     38      -2.2761      1.00000
     39      -2.2035      1.00000
     40      -2.0668      1.00000
     41      -2.0528      1.00000
     42      -2.0302      1.00000
     43      -2.0061      1.00000
     44      -1.9032      1.00000
     45      -1.7075      1.00000
     46      -1.6618      1.00000
     47      -1.5537      1.00000
     48      -1.4109      1.00000
     49      -1.3618      1.00000
     50      -1.2942      1.00000
     51      -1.1482      1.00000
     52      -1.1321      1.00000
     53      -1.0195      1.00000
     54      -1.0132      1.00000
     55      -1.0017      1.00000
     56      -0.7460      1.00000
     57      -0.7267      1.00000
     58      -0.7141      1.00000
     59      -0.5946      1.00000
     60      -0.4038      1.00000
     61      -0.3429      1.00000
     62      -0.1599      1.00000
     63      -0.1029      1.00000
     64       0.0090      1.00000
     65       0.0156      1.00000
     66       0.0345      1.00000
     67       0.1014      1.00000
     68       0.1474      1.00000
     69       0.2424      1.00000
     70       0.2924      1.00000
     71       0.4739      1.00000
     72       0.5414      1.00000
     73       0.5718      1.00000
     74       0.6804      1.00000
     75       0.7500      1.00000
     76       0.8258      1.00000
     77       0.8529      1.00000
     78       0.8761      1.00000
     79       1.0021      1.00000
     80       1.1832      1.00000
     81       4.1687      0.00000
     82       4.2260      0.00000
     83       4.5458      0.00000
     84       4.6039      0.00000
     85       4.8652      0.00000
     86       4.9141      0.00000
     87       4.9532      0.00000
     88       4.9750      0.00000
     89       5.0005      0.00000
     90       5.1284      0.00000
     91       5.3028      0.00000
     92       5.3566      0.00000
     93       5.7665      0.00000
     94       5.8761      0.00000
     95       6.3257      0.00000
     96       6.4166      0.00000
     97       6.6357      0.00000
     98       6.9657      0.00000
     99       7.2266      0.00000
    100       7.6519      0.00000
    101       8.5081      0.00000
    102       9.5381      0.00000
    103      10.5594      0.00000
    104      10.6301      0.00000
    105      10.6752      0.00000
    106      10.6759      0.00000
    107      11.0822      0.00000
    108      11.1085      0.00000
    109      11.2775      0.00000
    110      11.2777      0.00000
    111      11.3729      0.00000
    112      11.4417      0.00000
    113      11.6976      0.00000
    114      11.7272      0.00000
    115      12.0886      0.00000
    116      12.2323      0.00000

 k-point     8 :       0.2500    0.0000    0.3333
  band No.  band energies     occupation 
      1     -19.1212      1.00000
      2     -19.0286      1.00000
      3     -18.9937      1.00000
      4     -18.9495      1.00000
      5     -16.7280      1.00000
      6     -16.7158      1.00000
      7     -16.6279      1.00000
      8     -16.5653      1.00000
      9     -16.5317      1.00000
     10     -16.5075      1.00000
     11     -16.5027      1.00000
     12     -16.4831      1.00000
     13     -16.4699      1.00000
     14     -16.4664      1.00000
     15     -16.4463      1.00000
     16     -16.4375      1.00000
     17     -14.6283      1.00000
     18     -14.6159      1.00000
     19     -14.3979      1.00000
     20     -14.3741      1.00000
     21      -6.7941      1.00000
     22      -6.6502      1.00000
     23      -6.4819      1.00000
     24      -6.2967      1.00000
     25      -4.6636      1.00000
     26      -4.6302      1.00000
     27      -4.5033      1.00000
     28      -4.3133      1.00000
     29      -4.2924      1.00000
     30      -4.2604      1.00000
     31      -4.2176      1.00000
     32      -4.1099      1.00000
     33      -3.9906      1.00000
     34      -3.9894      1.00000
     35      -3.6435      1.00000
     36      -3.6259      1.00000
     37      -2.3142      1.00000
     38      -2.2711      1.00000
     39      -2.1764      1.00000
     40      -2.0976      1.00000
     41      -2.0899      1.00000
     42      -1.9658      1.00000
     43      -1.9566      1.00000
     44      -1.8361      1.00000
     45      -1.7993      1.00000
     46      -1.6799      1.00000
     47      -1.5292      1.00000
     48      -1.5127      1.00000
     49      -1.4720      1.00000
     50      -1.4247      1.00000
     51      -1.2824      1.00000
     52      -1.2376      1.00000
     53      -1.1331      1.00000
     54      -1.0768      1.00000
     55      -1.0568      1.00000
     56      -0.9291      1.00000
     57      -0.7106      1.00000
     58      -0.6785      1.00000
     59      -0.5437      1.00000
     60      -0.3519      1.00000
     61      -0.3512      1.00000
     62      -0.1810      1.00000
     63      -0.1550      1.00000
     64      -0.0873      1.00000
     65      -0.0522      1.00000
     66       0.0005      1.00000
     67       0.1010      1.00000
     68       0.1089      1.00000
     69       0.3154      1.00000
     70       0.3590      1.00000
     71       0.4622      1.00000
     72       0.5171      1.00000
     73       0.5237      1.00000
     74       0.5560      1.00000
     75       0.6503      1.00000
     76       0.7124      1.00000
     77       0.8599      1.00000
     78       0.8714      1.00000
     79       0.9478      1.00000
     80       1.0637      1.00000
     81       4.1890      0.00000
     82       4.2424      0.00000
     83       4.4597      0.00000
     84       4.5001      0.00000
     85       4.7822      0.00000
     86       4.8604      0.00000
     87       4.8927      0.00000
     88       4.9496      0.00000
     89       5.0249      0.00000
     90       5.1244      0.00000
     91       5.2145      0.00000
     92       5.2545      0.00000
     93       6.1767      0.00000
     94       6.2616      0.00000
     95       6.5629      0.00000
     96       6.5780      0.00000
     97       6.8604      0.00000
     98       6.9997      0.00000
     99       7.4276      0.00000
    100       7.6997      0.00000
    101       8.7969      0.00000
    102       9.7335      0.00000
    103      10.3584      0.00000
    104      10.5313      0.00000
    105      10.7194      0.00000
    106      10.8161      0.00000
    107      10.9500      0.00000
    108      11.1215      0.00000
    109      11.2925      0.00000
    110      11.3161      0.00000
    111      11.3814      0.00000
    112      11.3892      0.00000
    113      11.7057      0.00000
    114      11.8688      0.00000
    115      12.1089      0.00000
    116      12.1776      0.00000

 k-point     9 :       0.5000    0.0000    0.3333
  band No.  band energies     occupation 
      1     -19.0395      1.00000
      2     -19.0395      1.00000
      3     -18.9697      1.00000
      4     -18.9697      1.00000
      5     -16.7079      1.00000
      6     -16.7079      1.00000
      7     -16.6936      1.00000
      8     -16.6936      1.00000
      9     -16.5220      1.00000
     10     -16.5220      1.00000
     11     -16.4949      1.00000
     12     -16.4949      1.00000
     13     -16.4612      1.00000
     14     -16.4612      1.00000
     15     -16.4450      1.00000
     16     -16.4450      1.00000
     17     -14.6174      1.00000
     18     -14.6174      1.00000
     19     -14.3846      1.00000
     20     -14.3846      1.00000
     21      -6.5508      1.00000
     22      -6.5508      1.00000
     23      -6.3650      1.00000
     24      -6.3650      1.00000
     25      -4.6027      1.00000
     26      -4.6027      1.00000
     27      -4.4420      1.00000
     28      -4.4420      1.00000
     29      -4.1824      1.00000
     30      -4.1824      1.00000
     31      -4.1172      1.00000
     32      -4.1172      1.00000
     33      -3.7674      1.00000
     34      -3.7674      1.00000
     35      -3.7514      1.00000
     36      -3.7514      1.00000
     37      -2.2660      1.00000
     38      -2.2660      1.00000
     39      -2.2189      1.00000
     40      -2.2189      1.00000
     41      -2.0419      1.00000
     42      -2.0419      1.00000
     43      -1.8393      1.00000
     44      -1.8393      1.00000
     45      -1.8214      1.00000
     46      -1.8214      1.00000
     47      -1.6090      1.00000
     48      -1.6090      1.00000
     49      -1.4744      1.00000
     50      -1.4744      1.00000
     51      -1.3029      1.00000
     52      -1.3029      1.00000
     53      -1.1586      1.00000
     54      -1.1586      1.00000
     55      -0.9872      1.00000
     56      -0.9872      1.00000
     57      -0.9613      1.00000
     58      -0.9613      1.00000
     59      -0.5663      1.00000
     60      -0.5663      1.00000
     61      -0.3096      1.00000
     62      -0.3096      1.00000
     63      -0.1273      1.00000
     64      -0.1273      1.00000
     65       0.0889      1.00000
     66       0.0889      1.00000
     67       0.2069      1.00000
     68       0.2069      1.00000
     69       0.3019      1.00000
     70       0.3019      1.00000
     71       0.3497      1.00000
     72       0.3497      1.00000
     73       0.6134      1.00000
     74       0.6134      1.00000
     75       0.7380      1.00000
     76       0.7380      1.00000
     77       0.7576      1.00000
     78       0.7576      1.00000
     79       0.8929      1.00000
     80       0.8929      1.00000
     81       4.3054      0.00000
     82       4.3054      0.00000
     83       4.3253      0.00000
     84       4.3253      0.00000
     85       4.7003      0.00000
     86       4.7003      0.00000
     87       4.9303      0.00000
     88       4.9303      0.00000
     89       5.0910      0.00000
     90       5.0910      0.00000
     91       5.1581      0.00000
     92       5.1581      0.00000
     93       6.5734      0.00000
     94       6.5734      0.00000
     95       6.6701      0.00000
     96       6.6701      0.00000
     97       7.1012      0.00000
     98       7.1012      0.00000
     99       7.7384      0.00000
    100       7.7384      0.00000
    101       9.5636      0.00000
    102       9.5636      0.00000
    103      10.1723      0.00000
    104      10.1723      0.00000
    105      10.8627      0.00000
    106      10.8627      0.00000
    107      11.0096      0.00000
    108      11.0096      0.00000
    109      11.2760      0.00000
    110      11.2761      0.00000
    111      11.3982      0.00000
    112      11.3982      0.00000
    113      11.9682      0.00000
    114      11.9682      0.00000
    115      12.0584      0.00000
    116      12.0584      0.00000

 k-point    10 :       0.0000    0.3333    0.3333
  band No.  band energies     occupation 
      1     -19.1318      1.00000
      2     -19.0786      1.00000
      3     -18.9844      1.00000
      4     -18.9685      1.00000
      5     -16.7260      1.00000
      6     -16.6920      1.00000
      7     -16.6006      1.00000
      8     -16.5706      1.00000
      9     -16.5182      1.00000
     10     -16.4984      1.00000
     11     -16.4812      1.00000
     12     -16.4718      1.00000
     13     -16.4503      1.00000
     14     -16.4467      1.00000
     15     -16.4441      1.00000
     16     -16.4269      1.00000
     17     -14.6281      1.00000
     18     -14.6194      1.00000
     19     -14.3939      1.00000
     20     -14.3770      1.00000
     21      -6.8463      1.00000
     22      -6.7233      1.00000
     23      -6.6020      1.00000
     24      -6.4990      1.00000
     25      -4.6923      1.00000
     26      -4.6623      1.00000
     27      -4.4083      1.00000
     28      -4.3215      1.00000
     29      -4.2925      1.00000
     30      -4.2130      1.00000
     31      -4.1756      1.00000
     32      -4.1732      1.00000
     33      -4.0032      1.00000
     34      -3.9730      1.00000
     35      -3.9113      1.00000
     36      -3.8414      1.00000
     37      -2.3273      1.00000
     38      -2.2194      1.00000
     39      -2.1906      1.00000
     40      -2.1434      1.00000
     41      -2.1012      1.00000
     42      -2.0334      1.00000
     43      -1.8535      1.00000
     44      -1.7445      1.00000
     45      -1.7423      1.00000
     46      -1.6042      1.00000
     47      -1.5298      1.00000
     48      -1.4971      1.00000
     49      -1.3808      1.00000
     50      -1.3528      1.00000
     51      -1.3318      1.00000
     52      -1.2191      1.00000
     53      -1.1563      1.00000
     54      -0.9218      1.00000
     55      -0.8213      1.00000
     56      -0.7557      1.00000
     57      -0.7079      1.00000
     58      -0.7026      1.00000
     59      -0.4720      1.00000
     60      -0.4712      1.00000
     61      -0.3602      1.00000
     62      -0.2742      1.00000
     63      -0.1142      1.00000
     64      -0.0834      1.00000
     65       0.0066      1.00000
     66       0.0341      1.00000
     67       0.2072      1.00000
     68       0.2533      1.00000
     69       0.2544      1.00000
     70       0.3046      1.00000
     71       0.4837      1.00000
     72       0.5605      1.00000
     73       0.5777      1.00000
     74       0.6123      1.00000
     75       0.7008      1.00000
     76       0.7364      1.00000
     77       0.8500      1.00000
     78       0.8575      1.00000
     79       1.1528      1.00000
     80       1.2246      1.00000
     81       4.1946      0.00000
     82       4.2330      0.00000
     83       4.5415      0.00000
     84       4.5853      0.00000
     85       4.8649      0.00000
     86       4.9023      0.00000
     87       4.9302      0.00000
     88       4.9757      0.00000
     89       5.0104      0.00000
     90       5.0803      0.00000
     91       5.3258      0.00000
     92       5.3520      0.00000
     93       5.8748      0.00000
     94       5.9260      0.00000
     95       6.3062      0.00000
     96       6.3600      0.00000
     97       6.7190      0.00000
     98       6.8744      0.00000
     99       7.3426      0.00000
    100       7.5475      0.00000
    101       8.8764      0.00000
    102       9.5023      0.00000
    103      10.3644      0.00000
    104      10.4959      0.00000
    105      10.6901      0.00000
    106      10.7166      0.00000
    107      11.0367      0.00000
    108      11.1358      0.00000
    109      11.2834      0.00000
    110      11.3278      0.00000
    111      11.3489      0.00000
    112      11.4245      0.00000
    113      11.4471      0.00000
    114      11.7147      0.00000
    115      11.9565      0.00000
    116      12.1083      0.00000

 k-point    11 :       0.2500    0.3333    0.3333
  band No.  band energies     occupation 
      1     -19.0936      1.00000
      2     -19.0459      1.00000
      3     -18.9845      1.00000
      4     -18.9643      1.00000
      5     -16.7458      1.00000
      6     -16.7201      1.00000
      7     -16.6455      1.00000
      8     -16.6210      1.00000
      9     -16.5170      1.00000
     10     -16.5000      1.00000
     11     -16.4897      1.00000
     12     -16.4783      1.00000
     13     -16.4621      1.00000
     14     -16.4594      1.00000
     15     -16.4338      1.00000
     16     -16.4227      1.00000
     17     -14.6213      1.00000
     18     -14.6149      1.00000
     19     -14.3906      1.00000
     20     -14.3787      1.00000
     21      -6.7169      1.00000
     22      -6.5930      1.00000
     23      -6.5353      1.00000
     24      -6.4231      1.00000
     25      -4.6419      1.00000
     26      -4.6344      1.00000
     27      -4.3750      1.00000
     28      -4.3042      1.00000
     29      -4.2458      1.00000
     30      -4.2332      1.00000
     31      -4.1900      1.00000
     32      -4.0876      1.00000
     33      -4.0072      1.00000
     34      -3.9134      1.00000
     35      -3.7663      1.00000
     36      -3.7551      1.00000
     37      -2.3253      1.00000
     38      -2.2394      1.00000
     39      -2.1927      1.00000
     40      -2.1405      1.00000
     41      -2.0560      1.00000
     42      -2.0154      1.00000
     43      -1.9817      1.00000
     44      -1.8570      1.00000
     45      -1.7992      1.00000
     46      -1.7108      1.00000
     47      -1.5665      1.00000
     48      -1.5527      1.00000
     49      -1.4427      1.00000
     50      -1.3654      1.00000
     51      -1.3438      1.00000
     52      -1.3184      1.00000
     53      -1.2013      1.00000
     54      -1.1778      1.00000
     55      -0.9305      1.00000
     56      -0.8599      1.00000
     57      -0.7104      1.00000
     58      -0.6580      1.00000
     59      -0.5368      1.00000
     60      -0.4477      1.00000
     61      -0.2335      1.00000
     62      -0.1665      1.00000
     63      -0.1414      1.00000
     64      -0.0328      1.00000
     65       0.0182      1.00000
     66       0.0506      1.00000
     67       0.0797      1.00000
     68       0.1809      1.00000
     69       0.2595      1.00000
     70       0.3347      1.00000
     71       0.3803      1.00000
     72       0.4497      1.00000
     73       0.5505      1.00000
     74       0.5571      1.00000
     75       0.6412      1.00000
     76       0.7004      1.00000
     77       0.8227      1.00000
     78       0.8975      1.00000
     79       1.0557      1.00000
     80       1.0945      1.00000
     81       4.2101      0.00000
     82       4.2464      0.00000
     83       4.4504      0.00000
     84       4.4910      0.00000
     85       4.7875      0.00000
     86       4.8208      0.00000
     87       4.9069      0.00000
     88       4.9277      0.00000
     89       5.0281      0.00000
     90       5.0757      0.00000
     91       5.2416      0.00000
     92       5.2624      0.00000
     93       6.2634      0.00000
     94       6.3014      0.00000
     95       6.5664      0.00000
     96       6.5836      0.00000
     97       6.8681      0.00000
     98       6.9439      0.00000
     99       7.4889      0.00000
    100       7.6231      0.00000
    101       9.1195      0.00000
    102       9.6887      0.00000
    103      10.2858      0.00000
    104      10.4335      0.00000
    105      10.6482      0.00000
    106      10.7725      0.00000
    107      10.9440      0.00000
    108      11.0199      0.00000
    109      11.2224      0.00000
    110      11.3123      0.00000
    111      11.4047      0.00000
    112      11.4770      0.00000
    113      11.6195      0.00000
    114      11.8412      0.00000
    115      12.0234      0.00000
    116      12.0909      0.00000

 k-point    12 :       0.5000    0.3333    0.3333
  band No.  band energies     occupation 
      1     -19.0249      1.00000
      2     -19.0249      1.00000
      3     -18.9809      1.00000
      4     -18.9809      1.00000
      5     -16.7294      1.00000
      6     -16.7294      1.00000
      7     -16.7175      1.00000
      8     -16.7175      1.00000
      9     -16.5090      1.00000
     10     -16.5090      1.00000
     11     -16.4847      1.00000
     12     -16.4847      1.00000
     13     -16.4574      1.00000
     14     -16.4574      1.00000
     15     -16.4339      1.00000
     16     -16.4339      1.00000
     17     -14.6127      1.00000
     18     -14.6127      1.00000
     19     -14.3839      1.00000
     20     -14.3839      1.00000
     21      -6.5314      1.00000
     22      -6.5314      1.00000
     23      -6.4047      1.00000
     24      -6.4047      1.00000
     25      -4.5651      1.00000
     26      -4.5651      1.00000
     27      -4.3981      1.00000
     28      -4.3981      1.00000
     29      -4.1207      1.00000
     30      -4.1207      1.00000
     31      -4.0972      1.00000
     32      -4.0972      1.00000
     33      -3.8467      1.00000
     34      -3.8467      1.00000
     35      -3.7443      1.00000
     36      -3.7443      1.00000
     37      -2.2922      1.00000
     38      -2.2922      1.00000
     39      -2.2297      1.00000
     40      -2.2297      1.00000
     41      -2.0569      1.00000
     42      -2.0569      1.00000
     43      -1.9203      1.00000
     44      -1.9203      1.00000
     45      -1.8332      1.00000
     46      -1.8332      1.00000
     47      -1.6512      1.00000
     48      -1.6512      1.00000
     49      -1.5270      1.00000
     50      -1.5270      1.00000
     51      -1.3577      1.00000
     52      -1.3577      1.00000
     53      -1.2524      1.00000
     54      -1.2524      1.00000
     55      -1.0156      1.00000
     56      -1.0155      1.00000
     57      -0.7232      1.00000
     58      -0.7232      1.00000
     59      -0.6096      1.00000
     60      -0.6096      1.00000
     61      -0.2084      1.00000
     62      -0.2084      1.00000
     63      -0.0598      1.00000
     64      -0.0598      1.00000
     65       0.1327      1.00000
     66       0.1327      1.00000
     67       0.2195      1.00000
     68       0.2195      1.00000
     69       0.3107      1.00000
     70       0.3107      1.00000
     71       0.3578      1.00000
     72       0.3578      1.00000
     73       0.5181      1.00000
     74       0.5181      1.00000
     75       0.6411      1.00000
     76       0.6411      1.00000
     77       0.8249      1.00000
     78       0.8249      1.00000
     79       0.9454      1.00000
     80       0.9454      1.00000
     81       4.3008      0.00000
     82       4.3008      0.00000
     83       4.3345      0.00000
     84       4.3345      0.00000
     85       4.6918      0.00000
     86       4.6918      0.00000
     87       4.9207      0.00000
     88       4.9207      0.00000
     89       5.0479      0.00000
     90       5.0479      0.00000
     91       5.1876      0.00000
     92       5.1876      0.00000
     93       6.6106      0.00000
     94       6.6106      0.00000
     95       6.6941      0.00000
     96       6.6941      0.00000
     97       7.0946      0.00000
     98       7.0946      0.00000
     99       7.7241      0.00000
    100       7.7241      0.00000
    101       9.7405      0.00000
    102       9.7405      0.00000
    103      10.1171      0.00000
    104      10.1171      0.00000
    105      10.6547      0.00000
    106      10.6547      0.00000
    107      10.9151      0.00000
    108      10.9151      0.00000
    109      11.3466      0.00000
    110      11.3466      0.00000
    111      11.4445      0.00000
    112      11.4445      0.00000
    113      11.9648      0.00000
    114      11.9648      0.00000
    115      12.1147      0.00000
    116      12.1158      0.00000


--------------------------------------------------------------------------------------------------------


 soft charge-density along one line, spin component           1
         0         1         2         3         4         5         6         7         8         9
 total charge-density along one line
 
 soft charge-density along one line, spin component           2
         0         1         2         3         4         5         6         7         8         9
 total charge-density along one line
 
 pseudopotential strength for first ion, spin component:           1
  1.175   5.254   0.000   0.000   0.000
  5.254  22.466   0.000   0.000   0.000
  0.000   0.000  -0.344  -0.000   0.000
  0.000   0.000  -0.000  -0.345  -0.001
  0.000   0.000   0.000  -0.001  -0.344
 pseudopotential strength for first ion, spin component:           2
  1.175   5.254   0.000   0.000   0.000
  5.254  22.466   0.000   0.000   0.000
  0.000   0.000  -0.344  -0.000   0.000
  0.000   0.000  -0.000  -0.345  -0.001
  0.000   0.000   0.000  -0.001  -0.344
 total augmentation occupancy for first ion, spin component:           1
  0.807  -0.022   0.000   0.000   0.000
 -0.022   0.001   0.000   0.000   0.000
  0.000   0.000   0.091  -0.015  -0.008
  0.000   0.000  -0.015   0.062  -0.006
  0.000   0.000  -0.008  -0.006   0.073
 total augmentation occupancy for first ion, spin component:           2
  0.000   0.000   0.000   0.000   0.000
  0.000  -0.000   0.000   0.000   0.000
  0.000   0.000  -0.000  -0.000  -0.000
  0.000   0.000  -0.000   0.000  -0.000
  0.000   0.000  -0.000  -0.000   0.000


------------------------ aborting loop because EDIFF is reached ----------------------------------------





 total charge

# of ion       s       p       d       tot
------------------------------------------
    1        0.078   0.163   0.000   0.241
    2        0.078   0.163   0.000   0.241
    3        0.078   0.163   0.000   0.241
    4        0.078   0.163   0.000   0.241
    5        0.546   1.012   2.655   4.213
    6        0.546   1.012   2.655   4.213
    7        0.546   1.012   2.655   4.213
    8        0.546   1.012   2.655   4.213
    9        0.907   1.501   0.000   2.408
   10        0.907   1.501   0.000   2.408
   11        0.907   1.501   0.000   2.408
   12        0.907   1.501   0.000   2.408
   13        1.561   3.616   0.000   5.177
   14        1.561   3.616   0.000   5.177
   15        1.561   3.616   0.000   5.177
   16        1.561   3.616   0.000   5.177
   17        1.561   3.616   0.000   5.177
   18        1.561   3.616   0.000   5.177
   19        1.561   3.616   0.000   5.177
   20        1.561   3.616   0.000   5.177
   21        1.574   3.443   0.000   5.016
   22        1.574   3.443   0.000   5.016
   23        1.574   3.443   0.000   5.016
   24        1.574   3.443   0.000   5.016
   25        1.560   3.603   0.000   5.163
   26        1.560   3.603   0.000   5.163
   27        1.560   3.603   0.000   5.163
   28        1.560   3.603   0.000   5.163
   29        1.564   3.598   0.000   5.162
   30        1.564   3.598   0.000   5.162
   31        1.564   3.598   0.000   5.162
   32        1.564   3.598   0.000   5.162
--------------------------------------------------
tot         37.404  82.204  10.618 130.226



 magnetization (x)

# of ion       s       p       d       tot
------------------------------------------
    1        0.000   0.000   0.000   0.000
    2        0.000   0.000   0.000   0.000
    3        0.000   0.000   0.000   0.000
    4        0.000   0.000   0.000   0.000
    5        0.000   0.000   0.000   0.000
    6        0.000   0.000   0.000   0.000
    7        0.000   0.000   0.000   0.000
    8        0.000   0.000   0.000   0.000
    9       -0.000  -0.000   0.000  -0.000
   10       -0.000  -0.000   0.000  -0.000
   11       -0.000  -0.000   0.000  -0.000
   12       -0.000  -0.000   0.000  -0.000
   13       -0.000   0.000   0.000   0.000
   14       -0.000   0.000   0.000   0.000
   15       -0.000   0.000   0.000   0.000
   16       -0.000   0.000   0.000   0.000
   17       -0.000   0.000   0.000   0.000
   18       -0.000   0.000   0.000   0.000
   19       -0.000   0.000   0.000   0.000
   20       -0.000   0.000   0.000   0.000
   21       -0.000  -0.000   0.000  -0.000
   22       -0.000  -0.000   0.000  -0.000
   23       -0.000  -0.000   0.000  -0.000
   24       -0.000  -0.000   0.000  -0.000
   25       -0.000   0.000   0.000   0.000
   26       -0.000   0.000   0.000   0.000
   27       -0.000   0.000   0.000   0.000
   28       -0.000   0.000   0.000   0.000
   29       -0.000  -0.000   0.000  -0.000
   30       -0.000  -0.000   0.000  -0.000
   31       -0.000  -0.000   0.000  -0.000
   32       -0.000  -0.000   0.000  -0.000
--------------------------------------------------
tot         -0.000  -0.000   0.000  -0.000
 
    CHARGE:  cpu time      0.1078: real time      0.1088
    FORLOC:  cpu time      0.0026: real time      0.0026
    FORNL :  cpu time      0.5526: real time      0.5556
    STRESS:  cpu time      0.6871: real time      0.6909
    FORCOR:  cpu time      0.0330: real time      0.0331
    FORHAR:  cpu time      0.0058: real time      0.0058
    MIXING:  cpu time      0.0006: real time      0.0006
    OFIELD:  cpu time      0.0001: real time      0.0001

 ---------------------------------------------------------------------------------------------

         DFTD3 V3.0 Rev 1        
 Edisp (eV)   -4.78677

 E6    (eV) :    -2.3246
 E8    (eV) :    -2.4621
 % E8        : 51.44
    FORVDW:  cpu time      0.2411: real time      0.2432

  FORCE on cell =-STRESS in cart. coord.  units (eV):
  Direction    XX          YY          ZZ          XY          YZ          ZX
  --------------------------------------------------------------------------------------
  Alpha Z   419.63323   419.63323   419.63323
  Ewald   -2319.60634 -2300.82121 -2391.87961    -0.00000    -0.00004    -0.00000
  Hartree  1070.59153  1054.75211  1014.15057    -0.00000     0.00000    -0.00000
  E(xc)    -752.26409  -752.45570  -756.78327     0.00000     0.00000    -0.00000
  Local   -1239.89228 -1237.25259 -1117.63747    -0.00000     0.00004     0.00000
  n-local  -283.80678  -286.51966  -294.04101     0.00097     0.00559     0.00126
  augment   118.61386   118.71538   122.43431    -0.00000    -0.00000     0.00000
  Kinetic  2991.00248  2988.42177  3008.10862    -0.09285    -0.03968     0.01861
  Fock        0.00000     0.00000     0.00000     0.00000     0.00000     0.00000
  vdW        -4.28670    -4.48596    -3.98936    -0.00000    -0.00000    -0.00000
  -------------------------------------------------------------------------------------
  Total      -0.01510    -0.01264    -0.00398    -0.00000     0.00000     0.00000
  in kB      -0.07000    -0.05859    -0.01844    -0.00000     0.00000     0.00000
  external pressure =       -0.05 kB  Pullay stress =        0.00 kB


 VOLUME and BASIS-vectors are now :
 -----------------------------------------------------------------------------
  energy-cutoff  :      600.00
  volume of cell :      345.56
      direct lattice vectors                 reciprocal lattice vectors
     6.430541328  0.000000000  0.000000000     0.155507903 -0.000000000  0.000000000
     0.000000000  7.266591043  0.000000000    -0.000000000  0.137616111  0.000000000
     0.000000000  0.000000000  7.395041188     0.000000000  0.000000000  0.135225751

  length of vectors
     6.430541328  7.266591043  7.395041188     0.155507903  0.137616111  0.135225751


 FORCES acting on ions
    electron-ion (+dipol)            ewald-force                    non-local-force                 convergence-correction
 -----------------------------------------------------------------------------------------------
   0.273E-06 0.173E-06 0.118E-06   -.169E-05 -.584E-06 -.275E-05   -.426E-23 0.218E-23 -.301E-23   0.501E-10 -.466E-09 0.732E-09
   0.190E-06 0.265E-06 -.185E-06   -.186E-05 -.519E-05 0.199E-05   -.272E-23 0.176E-23 0.278E-23   -.387E-10 0.453E-09 -.723E-09
   -.159E-06 0.315E-06 -.167E-06   0.157E-05 -.564E-05 0.183E-05   -.205E-23 -.396E-25 -.552E-23   0.387E-10 0.454E-09 -.723E-09
   -.242E-06 0.223E-06 0.999E-07   0.141E-05 -.103E-05 -.259E-05   0.476E-23 -.218E-23 -.702E-23   -.501E-10 -.465E-09 0.732E-09
   -.742E-06 0.432E+01 -.515E+01   0.672E-05 -.450E+01 0.616E+01   -.498E-19 0.161E+00 -.104E+01   -.874E-10 0.344E-05 -.884E-05
   0.242E-07 -.432E+01 0.515E+01   -.222E-06 0.450E+01 -.616E+01   -.228E-19 -.161E+00 0.104E+01   0.839E-10 -.344E-05 0.884E-05
   0.242E-07 0.432E+01 0.515E+01   -.222E-06 -.450E+01 -.616E+01   0.124E-19 0.161E+00 0.104E+01   0.833E-10 0.344E-05 0.883E-05
   -.742E-06 -.432E+01 -.515E+01   0.672E-05 0.450E+01 0.616E+01   -.309E-20 -.161E+00 -.104E+01   -.866E-10 -.344E-05 -.884E-05
   -.885E-06 0.440E+01 0.687E+01   0.833E-05 -.425E+01 -.690E+01   -.217E-18 -.120E+00 0.757E-02   0.118E-09 0.894E-05 -.452E-06
   -.538E-07 -.440E+01 -.687E+01   0.491E-06 0.425E+01 0.690E+01   -.242E-18 0.120E+00 -.757E-02   -.113E-09 -.894E-05 0.460E-06
   -.538E-07 0.440E+01 -.687E+01   0.491E-06 -.425E+01 0.690E+01   0.422E-18 -.120E+00 -.757E-02   -.113E-09 0.894E-05 0.450E-06
   -.885E-06 -.440E+01 0.687E+01   0.833E-05 0.425E+01 -.690E+01   -.232E-18 0.120E+00 0.757E-02   0.118E-09 -.894E-05 -.458E-06
   -.600E+02 0.954E+02 -.172E+01   0.785E+02 -.119E+03 0.215E+01   -.185E+02 0.234E+02 -.440E+00   0.789E-05 0.355E-04 0.899E-05
   0.600E+02 -.954E+02 -.172E+01   -.785E+02 0.119E+03 0.215E+01   0.185E+02 -.234E+02 -.440E+00   -.789E-05 -.355E-04 0.900E-05
   0.600E+02 0.954E+02 0.172E+01   -.785E+02 -.119E+03 -.215E+01   0.185E+02 0.234E+02 0.440E+00   -.789E-05 0.355E-04 -.899E-05
   -.600E+02 -.954E+02 0.172E+01   0.785E+02 0.119E+03 -.215E+01   -.185E+02 -.234E+02 0.440E+00   0.789E-05 -.355E-04 -.900E-05
   0.600E+02 -.954E+02 0.172E+01   -.785E+02 0.119E+03 -.215E+01   0.185E+02 -.234E+02 0.440E+00   -.789E-05 -.355E-04 -.900E-05
   0.600E+02 0.954E+02 -.172E+01   -.785E+02 -.119E+03 0.215E+01   0.185E+02 0.234E+02 -.440E+00   -.789E-05 0.355E-04 0.899E-05
   -.600E+02 -.954E+02 -.172E+01   0.785E+02 0.119E+03 0.215E+01   -.185E+02 -.234E+02 -.440E+00   0.789E-05 -.355E-04 0.900E-05
   -.600E+02 0.954E+02 0.172E+01   0.785E+02 -.119E+03 -.215E+01   -.185E+02 0.234E+02 0.440E+00   0.789E-05 0.355E-04 -.899E-05
   -.350E-06 0.491E+02 0.156E+02   0.318E-05 -.545E+02 -.246E+02   -.815E-19 0.545E+01 0.894E+01   -.172E-09 0.343E-04 0.234E-04
   0.393E-07 -.491E+02 -.156E+02   -.360E-06 0.545E+02 0.246E+02   0.909E-19 -.545E+01 -.894E+01   0.165E-09 -.343E-04 -.234E-04
   0.393E-07 0.491E+02 -.156E+02   -.360E-06 -.545E+02 0.246E+02   -.922E-21 0.545E+01 -.894E+01   0.165E-09 0.343E-04 -.234E-04
   -.350E-06 -.491E+02 0.156E+02   0.318E-05 0.545E+02 -.246E+02   0.105E-18 -.545E+01 0.894E+01   -.171E-09 -.343E-04 0.234E-04
   -.220E-06 -.280E+02 -.108E+03   0.199E-05 0.397E+02 0.135E+03   -.376E-19 -.117E+02 -.275E+02   -.168E-09 0.904E-05 -.422E-04
   0.346E-07 0.280E+02 0.108E+03   -.324E-06 -.397E+02 -.135E+03   -.909E-19 0.117E+02 0.275E+02   0.169E-09 -.905E-05 0.422E-04
   0.346E-07 -.280E+02 0.108E+03   -.324E-06 0.397E+02 -.135E+03   -.466E-19 -.117E+02 0.275E+02   0.167E-09 0.905E-05 0.422E-04
   -.220E-06 0.280E+02 -.108E+03   0.199E-05 -.397E+02 0.135E+03   0.117E-19 0.117E+02 -.275E+02   -.167E-09 -.904E-05 -.422E-04
   0.333E-07 -.184E+02 -.109E+03   -.313E-06 0.247E+02 0.138E+03   0.792E-19 -.627E+01 -.283E+02   0.169E-09 0.320E-04 -.117E-04
   -.177E-06 0.184E+02 0.109E+03   0.162E-05 -.247E+02 -.138E+03   -.271E-19 0.627E+01 0.283E+02   -.166E-09 -.320E-04 0.117E-04
   -.177E-06 -.184E+02 0.109E+03   0.162E-05 0.247E+02 -.138E+03   -.223E-20 -.627E+01 0.283E+02   -.169E-09 0.320E-04 0.117E-04
   0.333E-07 0.184E+02 -.109E+03   -.313E-06 -.247E+02 0.138E+03   0.605E-20 0.627E+01 -.283E+02   0.169E-09 -.320E-04 -.117E-04
 -----------------------------------------------------------------------------------------------
   -.157E-03 0.130E-03 0.857E-04   -.435E-13 0.782E-13 0.284E-13   0.605E-20 -.533E-14 -.355E-14   -.293E-10 -.151E-09 -.104E-09
 
 
 POSITION                                       TOTAL-FORCE (eV/Angst)
 -----------------------------------------------------------------------------------
     -0.00000     -0.00000     -0.00000         0.000000     -0.000000     -0.000000
      3.21527      3.63330      3.69752        -0.000000     -0.000000     -0.000000
      0.00000      3.63330      3.69752        -0.000000     -0.000000     -0.000000
      3.21527      0.00000      0.00000        -0.000000     -0.000000     -0.000000
      4.82291      2.02117      6.20114         0.000000     -0.001174      0.001835
      1.60764      5.24542      1.19390         0.000000      0.001174     -0.001835
      1.60764      5.65446      4.89142        -0.000000     -0.001174     -0.001835
      4.82291      1.61213      2.50362         0.000000      0.001174      0.001835
      1.60764      2.68630      6.46174        -0.000000     -0.000357     -0.000270
      4.82291      4.58030      0.93330         0.000000      0.000357      0.000270
      4.82291      6.31959      4.63082         0.000000     -0.000357      0.000270
      1.60764      0.94700      2.76422         0.000000      0.000357     -0.000270
      6.06501      5.40593      4.64360         0.001412     -0.001428      0.000035
      3.58080      5.49396      0.94607        -0.001412      0.001428      0.000035
      0.36553      1.77264      6.44897        -0.001412     -0.001428     -0.000035
      2.84974      1.86066      2.75145         0.001412      0.001428     -0.000035
      0.36553      1.86066      2.75145        -0.001412      0.001428     -0.000035
      3.58080      5.40593      4.64360        -0.001412     -0.001428      0.000035
      6.06501      5.49396      0.94607         0.001412      0.001428      0.000035
      2.84974      1.77264      6.44897         0.001412     -0.001428     -0.000035
      4.82291      1.13468      0.80532        -0.000000     -0.001256     -0.001839
      1.60764      6.13192      6.58972        -0.000000      0.001256      0.001839
      1.60764      4.76797      2.89220        -0.000000     -0.001256      0.001839
      4.82291      2.49862      4.50285        -0.000000      0.001256     -0.001839
      4.82291      7.24053      5.88073        -0.000000      0.001119      0.002216
      1.60764      0.02606      1.51431         0.000000     -0.001119     -0.002216
      1.60764      3.60724      5.21183         0.000000      0.001119     -0.002216
      4.82291      3.65936      2.18321        -0.000000     -0.001119      0.002216
      1.60764      3.51694      0.37129        -0.000000      0.000612      0.001613
      4.82291      3.74965      7.02376         0.000000     -0.000612     -0.001613
      4.82291      7.15024      3.32623         0.000000      0.000612     -0.001613
      1.60764      0.11635      4.06881         0.000000     -0.000612      0.001613
 -----------------------------------------------------------------------------------
    total drift:                               -0.000157      0.000130      0.000086


--------------------------------------------------------------------------------------------------------



  FREE ENERGIE OF THE ION-ELECTRON SYSTEM (eV)
  ---------------------------------------------------
  free  energy   TOTEN  =      -246.43122208 eV

  energy  without entropy=     -246.43122208  energy(sigma->0) =     -246.43122208
 
 d Force =-0.2106924E-07[-0.214E-07,-0.208E-07]  d Energy = 0.1301021E-07-0.341E-07
 d Force =-0.1291599E-02[-0.129E-02,-0.129E-02]  d Ewald  = 0.5099425E-02-0.639E-02


--------------------------------------------------------------------------------------------------------


    POTLOK:  cpu time      0.0421: real time      0.0422


--------------------------------------------------------------------------------------------------------


 stress matrix after NEB project (eV)
     -0.01510     -0.00000      0.00000
     -0.00000     -0.01264      0.00000
      0.00000      0.00000     -0.00398
  FORCES: max atom, RMS     0.002482    0.001841
  FORCE total and by dimension    0.010414    0.002216
  Stress total and by dimension    0.020085    0.015097


--------------------------------------------------------------------------------------------------------


    WAVPRE:  cpu time      0.0087: real time      0.0099
    FEWALD:  cpu time      0.0004: real time      0.0004
    GENKIN:  cpu time      0.0076: real time      0.0076
    ORTHCH:  cpu time      0.1324: real time      0.1329
     LOOP+:  cpu time      8.8841: real time      8.9276


--------------------------------------- Ionic step        4  -------------------------------------------




--------------------------------------- Iteration      4(   1)  ---------------------------------------


    POTLOK:  cpu time      0.0326: real time      0.0327
    SETDIJ:  cpu time      0.0076: real time      0.0076
     EDDAV:  cpu time      2.5472: real time      2.5555
       DOS:  cpu time      0.0016: real time      0.0039
    CHARGE:  cpu time      0.1238: real time      0.1243
    MIXING:  cpu time      0.0008: real time      0.0008
    --------------------------------------------
      LOOP:  cpu time      2.7137: real time      2.7250

 eigenvalue-minimisations  :  5696
 total energy-change (2. order) : 0.1918529E-03  (-0.2035710E-04)
 number of electron     160.0000023 magnetization      -0.0000000
 augmentation part       15.0597284 magnetization       0.0000000

 Broyden mixing:
  rms(total) = 0.11978E-02    rms(broyden)= 0.11976E-02
  rms(prec ) = 0.16400E-02
  weight for this iteration     100.00

 Free energy of the ion-electron system (eV)
  ---------------------------------------------------
  alpha Z        PSCENC =       419.65193504
  Ewald energy   TEWEN  =     -7012.47149855
  -Hartree energ DENC   =     -3139.48430519
  -exchange      EXHF   =         0.00000000
  -V(xc)+E(xc)   XCENC  =       437.03097869
  PAW double counting   =     21471.47155657   -21296.16226991
  entropy T*S    EENTRO =        -0.00000000
  eigenvalues    EBANDS =      -873.46108008
  atomic energy  EATOM  =      9751.78041952
  Solvation  Ediel_sol  =         0.00000000
  ---------------------------------------------------
  free energy    TOTEN  =      -241.64426390 eV

  energy without entropy =     -241.64426390  energy(sigma->0) =     -241.64426390


--------------------------------------------------------------------------------------------------------




--------------------------------------- Iteration      4(   2)  ---------------------------------------


    POTLOK:  cpu time      0.0368: real time      0.0386
    SETDIJ:  cpu time      0.0093: real time      0.0094
     EDDAV:  cpu time      3.5235: real time      3.5407
       DOS:  cpu time      0.0011: real time      0.0011
    CHARGE:  cpu time      0.1221: real time      0.1224
    MIXING:  cpu time      0.0008: real time      0.0008
    --------------------------------------------
      LOOP:  cpu time      3.6937: real time      3.7131

 eigenvalue-minimisations  :  8144
 total energy-change (2. order) : 0.1400607E-05  (-0.1114705E-05)
 number of electron     160.0000023 magnetization      -0.0000000
 augmentation part       15.0592064 magnetization       0.0000000

 Broyden mixing:
  rms(total) = 0.91580E-03    rms(broyden)= 0.91575E-03
  rms(prec ) = 0.11478E-02
  weight for this iteration     100.00

 eigenvalues of (default mixing * dielectric matrix)
  average eigenvalue GAMMA=   0.6421
  0.6421

 Free energy of the ion-electron system (eV)
  ---------------------------------------------------
  alpha Z        PSCENC =       419.65193504
  Ewald energy   TEWEN  =     -7012.47149855
  -Hartree energ DENC   =     -3139.38683406
  -exchange      EXHF   =         0.00000000
  -V(xc)+E(xc)   XCENC  =       437.02427678
  PAW double counting   =     21471.14038713   -21295.83122171
  entropy T*S    EENTRO =        -0.00000000
  eigenvalues    EBANDS =      -873.55172665
  atomic energy  EATOM  =      9751.78041952
  Solvation  Ediel_sol  =         0.00000000
  ---------------------------------------------------
  free energy    TOTEN  =      -241.64426250 eV

  energy without entropy =     -241.64426250  energy(sigma->0) =     -241.64426250


--------------------------------------------------------------------------------------------------------




--------------------------------------- Iteration      4(   3)  ---------------------------------------


    POTLOK:  cpu time      0.0310: real time      0.0312
    SETDIJ:  cpu time      0.0080: real time      0.0080
     EDDAV:  cpu time      3.4425: real time      3.4581
       DOS:  cpu time      0.0010: real time      0.0010
    CHARGE:  cpu time      0.1203: real time      0.1207
    MIXING:  cpu time      0.0008: real time      0.0008
    --------------------------------------------
      LOOP:  cpu time      3.6038: real time      3.6199

 eigenvalue-minimisations  :  7760
 total energy-change (2. order) : 0.5231068E-06  (-0.1791021E-06)
 number of electron     160.0000023 magnetization      -0.0000000
 augmentation part       15.0598225 magnetization       0.0000000

 Broyden mixing:
  rms(total) = 0.32142E-03    rms(broyden)= 0.32140E-03
  rms(prec ) = 0.40892E-03
  weight for this iteration     100.00

 eigenvalues of (default mixing * dielectric matrix)
  average eigenvalue GAMMA=   0.9438
  1.3060  0.5816

 Free energy of the ion-electron system (eV)
  ---------------------------------------------------
  alpha Z        PSCENC =       419.65193504
  Ewald energy   TEWEN  =     -7012.47149855
  -Hartree energ DENC   =     -3139.38857223
  -exchange      EXHF   =         0.00000000
  -V(xc)+E(xc)   XCENC  =       437.02503830
  PAW double counting   =     21471.27839300   -21295.96885708
  entropy T*S    EENTRO =        -0.00000000
  eigenvalues    EBANDS =      -873.55111996
  atomic energy  EATOM  =      9751.78041952
  Solvation  Ediel_sol  =         0.00000000
  ---------------------------------------------------
  free energy    TOTEN  =      -241.64426198 eV

  energy without entropy =     -241.64426198  energy(sigma->0) =     -241.64426198


--------------------------------------------------------------------------------------------------------




--------------------------------------- Iteration      4(   4)  ---------------------------------------


    POTLOK:  cpu time      0.0304: real time      0.0306
    SETDIJ:  cpu time      0.0082: real time      0.0082
     EDDAV:  cpu time      3.1180: real time      3.1302
       DOS:  cpu time      0.0011: real time      0.0011
    CHARGE:  cpu time      0.1102: real time      0.1106
    MIXING:  cpu time      0.0009: real time      0.0009
    --------------------------------------------
      LOOP:  cpu time      3.2688: real time      3.2815

 eigenvalue-minimisations  :  7680
 total energy-change (2. order) : 0.1358239E-07  (-0.3320844E-07)
 number of electron     160.0000023 magnetization       0.0000000
 augmentation part       15.0596771 magnetization       0.0000000

 Broyden mixing:
  rms(total) = 0.16254E-03    rms(broyden)= 0.16253E-03
  rms(prec ) = 0.18973E-03
  weight for this iteration     100.00

 eigenvalues of (default mixing * dielectric matrix)
  average eigenvalue GAMMA=   1.1406
  1.8769  1.0200  0.5248

 Free energy of the ion-electron system (eV)
  ---------------------------------------------------
  alpha Z        PSCENC =       419.65193504
  Ewald energy   TEWEN  =     -7012.47149855
  -Hartree energ DENC   =     -3139.37392539
  -exchange      EXHF   =         0.00000000
  -V(xc)+E(xc)   XCENC  =       437.02417953
  PAW double counting   =     21471.36203074   -21296.05281788
  entropy T*S    EENTRO =        -0.00000000
  eigenvalues    EBANDS =      -873.56458498
  atomic energy  EATOM  =      9751.78041952
  Solvation  Ediel_sol  =         0.00000000
  ---------------------------------------------------
  free energy    TOTEN  =      -241.64426197 eV

  energy without entropy =     -241.64426197  energy(sigma->0) =     -241.64426197


--------------------------------------------------------------------------------------------------------




--------------------------------------- Iteration      4(   5)  ---------------------------------------


    POTLOK:  cpu time      0.0319: real time      0.0323
    SETDIJ:  cpu time      0.0079: real time      0.0079
     EDDAV:  cpu time      2.8974: real time      2.9174
       DOS:  cpu time      0.0010: real time      0.0010
    CHARGE:  cpu time      0.1100: real time      0.1105
    MIXING:  cpu time      0.0009: real time      0.0009
    --------------------------------------------
      LOOP:  cpu time      3.0493: real time      3.0700

 eigenvalue-minimisations  :  6688
 total energy-change (2. order) :-0.1221742E-06  (-0.9500730E-08)
 number of electron     160.0000023 magnetization       0.0000000
 augmentation part       15.0597345 magnetization       0.0000000

 Broyden mixing:
  rms(total) = 0.76680E-04    rms(broyden)= 0.76678E-04
  rms(prec ) = 0.80517E-04
  weight for this iteration     100.00

 eigenvalues of (default mixing * dielectric matrix)
  average eigenvalue GAMMA=   0.9391
  1.8809  1.0070  0.5335  0.3349

 Free energy of the ion-electron system (eV)
  ---------------------------------------------------
  alpha Z        PSCENC =       419.65193504
  Ewald energy   TEWEN  =     -7012.47149855
  -Hartree energ DENC   =     -3139.37052617
  -exchange      EXHF   =         0.00000000
  -V(xc)+E(xc)   XCENC  =       437.02409247
  PAW double counting   =     21471.38777400   -21296.07875361
  entropy T*S    EENTRO =        -0.00000000
  eigenvalues    EBANDS =      -873.56770478
  atomic energy  EATOM  =      9751.78041952
  Solvation  Ediel_sol  =         0.00000000
  ---------------------------------------------------
  free energy    TOTEN  =      -241.64426209 eV

  energy without entropy =     -241.64426209  energy(sigma->0) =     -241.64426209


--------------------------------------------------------------------------------------------------------




--------------------------------------- Iteration      4(   6)  ---------------------------------------


    POTLOK:  cpu time      0.0570: real time      0.0582
    SETDIJ:  cpu time      0.0097: real time      0.0097
     EDDAV:  cpu time      2.0985: real time      2.1311
       DOS:  cpu time      0.0010: real time      0.0010
    CHARGE:  cpu time      0.1153: real time      0.1157
    MIXING:  cpu time      0.0011: real time      0.0011
    --------------------------------------------
      LOOP:  cpu time      2.2828: real time      2.3169

 eigenvalue-minimisations  :  3552
 total energy-change (2. order) :-0.4047070E-07  (-0.5311078E-09)
 number of electron     160.0000023 magnetization      -0.0000000
 augmentation part       15.0597349 magnetization       0.0000000

 Broyden mixing:
  rms(total) = 0.59402E-04    rms(broyden)= 0.59402E-04
  rms(prec ) = 0.61095E-04
  weight for this iteration     100.00

 eigenvalues of (default mixing * dielectric matrix)
  average eigenvalue GAMMA=   1.2682
  2.3312  0.5204  1.0323  1.2285  1.2285

 Free energy of the ion-electron system (eV)
  ---------------------------------------------------
  alpha Z        PSCENC =       419.65193504
  Ewald energy   TEWEN  =     -7012.47149855
  -Hartree energ DENC   =     -3139.37067334
  -exchange      EXHF   =         0.00000000
  -V(xc)+E(xc)   XCENC  =       437.02409436
  PAW double counting   =     21471.32015047   -21296.01118461
  entropy T*S    EENTRO =        -0.00000000
  eigenvalues    EBANDS =      -873.56750502
  atomic energy  EATOM  =      9751.78041952
  Solvation  Ediel_sol  =         0.00000000
  ---------------------------------------------------
  free energy    TOTEN  =      -241.64426213 eV

  energy without entropy =     -241.64426213  energy(sigma->0) =     -241.64426213


--------------------------------------------------------------------------------------------------------




--------------------------------------- Iteration      4(   7)  ---------------------------------------


    POTLOK:  cpu time      0.0320: real time      0.0320
    SETDIJ:  cpu time      0.0080: real time      0.0081
     EDDAV:  cpu time      1.7723: real time      1.7795
       DOS:  cpu time      0.0010: real time      0.0010
    CHARGE:  cpu time      0.1097: real time      0.1100
    MIXING:  cpu time      0.0009: real time      0.0009
    --------------------------------------------
      LOOP:  cpu time      1.9239: real time      1.9316

 eigenvalue-minimisations  :  3120
 total energy-change (2. order) :-0.6915070E-07  (-0.1337824E-09)
 number of electron     160.0000023 magnetization       0.0000000
 augmentation part       15.0597282 magnetization       0.0000000

 Broyden mixing:
  rms(total) = 0.21497E-04    rms(broyden)= 0.21496E-04
  rms(prec ) = 0.24548E-04
  weight for this iteration     100.00

 eigenvalues of (default mixing * dielectric matrix)
  average eigenvalue GAMMA=   1.2759
  2.3495  1.7334  0.5220  1.0873  1.0873  0.8758

 Free energy of the ion-electron system (eV)
  ---------------------------------------------------
  alpha Z        PSCENC =       419.65193504
  Ewald energy   TEWEN  =     -7012.47149855
  -Hartree energ DENC   =     -3139.37025618
  -exchange      EXHF   =         0.00000000
  -V(xc)+E(xc)   XCENC  =       437.02405775
  PAW double counting   =     21471.18478363   -21295.87591895
  entropy T*S    EENTRO =        -0.00000000
  eigenvalues    EBANDS =      -873.56778445
  atomic energy  EATOM  =      9751.78041952
  Solvation  Ediel_sol  =         0.00000000
  ---------------------------------------------------
  free energy    TOTEN  =      -241.64426220 eV

  energy without entropy =     -241.64426220  energy(sigma->0) =     -241.64426220


--------------------------------------------------------------------------------------------------------




--------------------------------------- Iteration      4(   8)  ---------------------------------------


    POTLOK:  cpu time      0.0377: real time      0.0378
    SETDIJ:  cpu time      0.0081: real time      0.0082
     EDDAV:  cpu time      2.0366: real time      2.0445
       DOS:  cpu time      0.0010: real time      0.0010
    CHARGE:  cpu time      0.1091: real time      0.1094
    MIXING:  cpu time      0.0010: real time      0.0010
    --------------------------------------------
      LOOP:  cpu time      2.1935: real time      2.2020

 eigenvalue-minimisations  :  3072
 total energy-change (2. order) :-0.2560773E-07  (-0.1001737E-09)
 number of electron     160.0000023 magnetization       0.0000000
 augmentation part       15.0597325 magnetization       0.0000000

 Broyden mixing:
  rms(total) = 0.97185E-05    rms(broyden)= 0.97177E-05
  rms(prec ) = 0.10285E-04
  weight for this iteration     100.00

 eigenvalues of (default mixing * dielectric matrix)
  average eigenvalue GAMMA=   1.2644
  2.5775  1.7808  0.5221  1.0483  1.0483  0.9369  0.9369

 Free energy of the ion-electron system (eV)
  ---------------------------------------------------
  alpha Z        PSCENC =       419.65193504
  Ewald energy   TEWEN  =     -7012.47149855
  -Hartree energ DENC   =     -3139.37089232
  -exchange      EXHF   =         0.00000000
  -V(xc)+E(xc)   XCENC  =       437.02409088
  PAW double counting   =     21471.11565035   -21295.80681115
  entropy T*S    EENTRO =        -0.00000000
  eigenvalues    EBANDS =      -873.56715600
  atomic energy  EATOM  =      9751.78041952
  Solvation  Ediel_sol  =         0.00000000
  ---------------------------------------------------
  free energy    TOTEN  =      -241.64426222 eV

  energy without entropy =     -241.64426222  energy(sigma->0) =     -241.64426222


--------------------------------------------------------------------------------------------------------




--------------------------------------- Iteration      4(   9)  ---------------------------------------


    POTLOK:  cpu time      0.0313: real time      0.0315
    SETDIJ:  cpu time      0.0083: real time      0.0083
     EDDAV:  cpu time      1.7788: real time      1.7883
       DOS:  cpu time      0.0010: real time      0.0010
    --------------------------------------------
      LOOP:  cpu time      1.8194: real time      1.8291

 eigenvalue-minimisations  :  3060
 total energy-change (2. order) :-0.4718459E-08  (-0.4441493E-10)
 number of electron     160.0000023 magnetization       0.0000000
 augmentation part       15.0597325 magnetization       0.0000000

 Free energy of the ion-electron system (eV)
  ---------------------------------------------------
  alpha Z        PSCENC =       419.65193504
  Ewald energy   TEWEN  =     -7012.47149855
  -Hartree energ DENC   =     -3139.37101418
  -exchange      EXHF   =         0.00000000
  -V(xc)+E(xc)   XCENC  =       437.02409812
  PAW double counting   =     21471.10717863   -21295.79834068
  entropy T*S    EENTRO =        -0.00000000
  eigenvalues    EBANDS =      -873.56704013
  atomic energy  EATOM  =      9751.78041952
  Solvation  Ediel_sol  =         0.00000000
  ---------------------------------------------------
  free energy    TOTEN  =      -241.64426223 eV

  energy without entropy =     -241.64426223  energy(sigma->0) =     -241.64426223


--------------------------------------------------------------------------------------------------------




 average (electrostatic) potential at core
  the test charge radii are     0.9748  1.2598  0.9587  0.7215
  (the norm of the test charge is              1.0000)
       1 -25.7540       2 -25.7540       3 -25.7540       4 -25.7540       5 -28.0292
       6 -28.0292       7 -28.0292       8 -28.0292       9 -87.6991      10 -87.6991
      11 -87.6991      12 -87.6991      13 -72.6901      14 -72.6901      15 -72.6901
      16 -72.6901      17 -72.6901      18 -72.6901      19 -72.6901      20 -72.6901
      21 -72.0165      22 -72.0165      23 -72.0165      24 -72.0165      25 -72.7151
      26 -72.7151      27 -72.7151      28 -72.7151      29 -72.7766      30 -72.7766
      31 -72.7766      32 -72.7766
 
 
 
 E-fermi :   1.4838     XC(G=0): -10.0420     alpha+bet :-10.7899

 Fermi energy:         1.4837783741

 spin component 1

 k-point     1 :       0.0000    0.0000    0.0000
  band No.  band energies     occupation 
      1     -19.2068      1.00000
      2     -19.0081      1.00000
      3     -18.9894      1.00000
      4     -18.9564      1.00000
      5     -16.7194      1.00000
      6     -16.6978      1.00000
      7     -16.6222      1.00000
      8     -16.5447      1.00000
      9     -16.5233      1.00000
     10     -16.4941      1.00000
     11     -16.4775      1.00000
     12     -16.4657      1.00000
     13     -16.4560      1.00000
     14     -16.4498      1.00000
     15     -16.4367      1.00000
     16     -16.4252      1.00000
     17     -14.7425      1.00000
     18     -14.7405      1.00000
     19     -14.2784      1.00000
     20     -14.2439      1.00000
     21      -6.9953      1.00000
     22      -6.7334      1.00000
     23      -6.5981      1.00000
     24      -6.2871      1.00000
     25      -4.7625      1.00000
     26      -4.6898      1.00000
     27      -4.6103      1.00000
     28      -4.4693      1.00000
     29      -4.4415      1.00000
     30      -4.1740      1.00000
     31      -4.1598      1.00000
     32      -4.0205      1.00000
     33      -3.9086      1.00000
     34      -3.9001      1.00000
     35      -3.7596      1.00000
     36      -3.6825      1.00000
     37      -2.4571      1.00000
     38      -2.3927      1.00000
     39      -2.3752      1.00000
     40      -2.2475      1.00000
     41      -2.2324      1.00000
     42      -2.1319      1.00000
     43      -1.9660      1.00000
     44      -1.8611      1.00000
     45      -1.7520      1.00000
     46      -1.6602      1.00000
     47      -1.6363      1.00000
     48      -1.4425      1.00000
     49      -1.3298      1.00000
     50      -1.1732      1.00000
     51      -1.1587      1.00000
     52      -1.1220      1.00000
     53      -1.1148      1.00000
     54      -1.0725      1.00000
     55      -0.7249      1.00000
     56      -0.7094      1.00000
     57      -0.5296      1.00000
     58      -0.4442      1.00000
     59      -0.3845      1.00000
     60      -0.2774      1.00000
     61      -0.2339      1.00000
     62      -0.1744      1.00000
     63      -0.1647      1.00000
     64      -0.1560      1.00000
     65       0.1350      1.00000
     66       0.1845      1.00000
     67       0.2156      1.00000
     68       0.2200      1.00000
     69       0.3249      1.00000
     70       0.3366      1.00000
     71       0.3946      1.00000
     72       0.4121      1.00000
     73       0.5170      1.00000
     74       0.6130      1.00000
     75       0.7726      1.00000
     76       0.7842      1.00000
     77       0.8397      1.00000
     78       0.9001      1.00000
     79       1.0374      1.00000
     80       1.1783      1.00000
     81       4.1441      0.00000
     82       4.2779      0.00000
     83       4.4121      0.00000
     84       4.5968      0.00000
     85       4.7094      0.00000
     86       4.7533      0.00000
     87       4.7620      0.00000
     88       4.8110      0.00000
     89       4.8950      0.00000
     90       4.9527      0.00000
     91       5.5298      0.00000
     92       5.5563      0.00000
     93       5.7085      0.00000
     94       5.9409      0.00000
     95       6.2607      0.00000
     96       6.4708      0.00000
     97       6.6181      0.00000
     98       6.7298      0.00000
     99       7.6563      0.00000
    100       7.9909      0.00000
    101       7.9965      0.00000
    102      10.2675      0.00000
    103      10.2865      0.00000
    104      10.5024      0.00000
    105      10.6591      0.00000
    106      10.6692      0.00000
    107      10.8961      0.00000
    108      10.9969      0.00000
    109      11.0179      0.00000
    110      11.3538      0.00000
    111      11.4887      0.00000
    112      11.5640      0.00000
    113      11.7822      0.00000
    114      11.8071      0.00000
    115      11.9802      0.00000
    116      12.2273      0.00000

 k-point     2 :       0.2500    0.0000    0.0000
  band No.  band energies     occupation 
      1     -19.1622      1.00000
      2     -19.0183      1.00000
      3     -18.9652      1.00000
      4     -18.9413      1.00000
      5     -16.7386      1.00000
      6     -16.7124      1.00000
      7     -16.6718      1.00000
      8     -16.5531      1.00000
      9     -16.5369      1.00000
     10     -16.5236      1.00000
     11     -16.4872      1.00000
     12     -16.4678      1.00000
     13     -16.4659      1.00000
     14     -16.4575      1.00000
     15     -16.4444      1.00000
     16     -16.4216      1.00000
     17     -14.7359      1.00000
     18     -14.7334      1.00000
     19     -14.2735      1.00000
     20     -14.2492      1.00000
     21      -6.8572      1.00000
     22      -6.5719      1.00000
     23      -6.5623      1.00000
     24      -6.2015      1.00000
     25      -4.7048      1.00000
     26      -4.6863      1.00000
     27      -4.6629      1.00000
     28      -4.3669      1.00000
     29      -4.3243      1.00000
     30      -4.2400      1.00000
     31      -4.1957      1.00000
     32      -3.9797      1.00000
     33      -3.9069      1.00000
     34      -3.8201      1.00000
     35      -3.6390      1.00000
     36      -3.6045      1.00000
     37      -2.4275      1.00000
     38      -2.4199      1.00000
     39      -2.4138      1.00000
     40      -2.2442      1.00000
     41      -2.1970      1.00000
     42      -2.1141      1.00000
     43      -2.0190      1.00000
     44      -1.9262      1.00000
     45      -1.7884      1.00000
     46      -1.6981      1.00000
     47      -1.6959      1.00000
     48      -1.4626      1.00000
     49      -1.4623      1.00000
     50      -1.3318      1.00000
     51      -1.2994      1.00000
     52      -1.1996      1.00000
     53      -1.1925      1.00000
     54      -0.7639      1.00000
     55      -0.7616      1.00000
     56      -0.7342      1.00000
     57      -0.6332      1.00000
     58      -0.5254      1.00000
     59      -0.3768      1.00000
     60      -0.2889      1.00000
     61      -0.2828      1.00000
     62      -0.2121      1.00000
     63      -0.1710      1.00000
     64      -0.0951      1.00000
     65      -0.0316      1.00000
     66       0.0322      1.00000
     67       0.1687      1.00000
     68       0.2025      1.00000
     69       0.2824      1.00000
     70       0.3162      1.00000
     71       0.3562      1.00000
     72       0.3565      1.00000
     73       0.4968      1.00000
     74       0.5960      1.00000
     75       0.7106      1.00000
     76       0.7965      1.00000
     77       0.8186      1.00000
     78       0.9134      1.00000
     79       0.9967      1.00000
     80       1.0552      1.00000
     81       4.1615      0.00000
     82       4.2776      0.00000
     83       4.3279      0.00000
     84       4.4884      0.00000
     85       4.6047      0.00000
     86       4.7449      0.00000
     87       4.7788      0.00000
     88       4.8039      0.00000
     89       4.8139      0.00000
     90       4.9419      0.00000
     91       5.4517      0.00000
     92       5.4862      0.00000
     93       6.1280      0.00000
     94       6.3052      0.00000
     95       6.5459      0.00000
     96       6.5600      0.00000
     97       6.7786      0.00000
     98       6.8114      0.00000
     99       7.8525      0.00000
    100       8.0699      0.00000
    101       8.3364      0.00000
    102      10.1990      0.00000
    103      10.2851      0.00000
    104      10.3511      0.00000
    105      10.6719      0.00000
    106      10.7954      0.00000
    107      10.9820      0.00000
    108      11.0736      0.00000
    109      11.1163      0.00000
    110      11.3008      0.00000
    111      11.4332      0.00000
    112      11.5657      0.00000
    113      11.8710      0.00000
    114      11.9178      0.00000
    115      11.9583      0.00000
    116      12.0443      0.00000

 k-point     3 :       0.5000    0.0000    0.0000
  band No.  band energies     occupation 
      1     -19.0729      1.00000
      2     -19.0729      1.00000
      3     -18.9330      1.00000
      4     -18.9330      1.00000
      5     -16.7262      1.00000
      6     -16.7262      1.00000
      7     -16.6962      1.00000
      8     -16.6962      1.00000
      9     -16.5232      1.00000
     10     -16.5232      1.00000
     11     -16.4735      1.00000
     12     -16.4735      1.00000
     13     -16.4706      1.00000
     14     -16.4706      1.00000
     15     -16.4349      1.00000
     16     -16.4349      1.00000
     17     -14.7282      1.00000
     18     -14.7282      1.00000
     19     -14.2615      1.00000
     20     -14.2615      1.00000
     21      -6.6350      1.00000
     22      -6.6350      1.00000
     23      -6.2572      1.00000
     24      -6.2572      1.00000
     25      -4.7268      1.00000
     26      -4.7268      1.00000
     27      -4.4285      1.00000
     28      -4.4285      1.00000
     29      -4.2015      1.00000
     30      -4.2015      1.00000
     31      -4.0780      1.00000
     32      -4.0780      1.00000
     33      -3.6938      1.00000
     34      -3.6938      1.00000
     35      -3.6808      1.00000
     36      -3.6808      1.00000
     37      -2.4206      1.00000
     38      -2.4206      1.00000
     39      -2.3648      1.00000
     40      -2.3648      1.00000
     41      -2.1852      1.00000
     42      -2.1852      1.00000
     43      -2.0018      1.00000
     44      -2.0018      1.00000
     45      -1.6944      1.00000
     46      -1.6944      1.00000
     47      -1.6393      1.00000
     48      -1.6393      1.00000
     49      -1.5544      1.00000
     50      -1.5544      1.00000
     51      -1.4528      1.00000
     52      -1.4528      1.00000
     53      -0.8308      1.00000
     54      -0.8308      1.00000
     55      -0.8162      1.00000
     56      -0.8162      1.00000
     57      -0.7343      1.00000
     58      -0.7343      1.00000
     59      -0.3342      1.00000
     60      -0.3342      1.00000
     61      -0.2832      1.00000
     62      -0.2832      1.00000
     63      -0.2082      1.00000
     64      -0.2082      1.00000
     65       0.0722      1.00000
     66       0.0722      1.00000
     67       0.0875      1.00000
     68       0.0875      1.00000
     69       0.2791      1.00000
     70       0.2791      1.00000
     71       0.3289      1.00000
     72       0.3289      1.00000
     73       0.5481      1.00000
     74       0.5481      1.00000
     75       0.7863      1.00000
     76       0.7863      1.00000
     77       0.8901      1.00000
     78       0.8901      1.00000
     79       0.9052      1.00000
     80       0.9052      1.00000
     81       4.2628      0.00000
     82       4.2628      0.00000
     83       4.2811      0.00000
     84       4.2811      0.00000
     85       4.5623      0.00000
     86       4.5623      0.00000
     87       4.8043      0.00000
     88       4.8043      0.00000
     89       4.8891      0.00000
     90       4.8891      0.00000
     91       5.4118      0.00000
     92       5.4118      0.00000
     93       6.5323      0.00000
     94       6.5323      0.00000
     95       6.6919      0.00000
     96       6.6919      0.00000
     97       6.9431      0.00000
     98       6.9431      0.00000
     99       8.1459      0.00000
    100       8.1459      0.00000
    101       9.2459      0.00000
    102       9.2459      0.00000
    103      10.3406      0.00000
    104      10.3406      0.00000
    105      10.8539      0.00000
    106      10.8539      0.00000
    107      11.1210      0.00000
    108      11.1210      0.00000
    109      11.1822      0.00000
    110      11.1822      0.00000
    111      11.5627      0.00000
    112      11.5627      0.00000
    113      11.8026      0.00000
    114      11.8026      0.00000
    115      12.1661      0.00000
    116      12.1661      0.00000

 k-point     4 :       0.0000    0.3333    0.0000
  band No.  band energies     occupation 
      1     -19.1593      1.00000
      2     -19.0596      1.00000
      3     -18.9801      1.00000
      4     -18.9631      1.00000
      5     -16.7316      1.00000
      6     -16.6584      1.00000
      7     -16.6130      1.00000
      8     -16.5627      1.00000
      9     -16.5281      1.00000
     10     -16.4937      1.00000
     11     -16.4896      1.00000
     12     -16.4760      1.00000
     13     -16.4466      1.00000
     14     -16.4439      1.00000
     15     -16.4422      1.00000
     16     -16.4368      1.00000
     17     -14.7357      1.00000
     18     -14.7340      1.00000
     19     -14.2706      1.00000
     20     -14.2532      1.00000
     21      -6.8967      1.00000
     22      -6.6606      1.00000
     23      -6.6313      1.00000
     24      -6.4505      1.00000
     25      -4.6996      1.00000
     26      -4.6559      1.00000
     27      -4.4677      1.00000
     28      -4.3713      1.00000
     29      -4.3400      1.00000
     30      -4.2362      1.00000
     31      -4.1903      1.00000
     32      -4.0563      1.00000
     33      -4.0039      1.00000
     34      -3.9589      1.00000
     35      -3.9440      1.00000
     36      -3.8200      1.00000
     37      -2.5087      1.00000
     38      -2.3673      1.00000
     39      -2.3240      1.00000
     40      -2.2762      1.00000
     41      -2.2396      1.00000
     42      -2.2260      1.00000
     43      -1.8410      1.00000
     44      -1.7366      1.00000
     45      -1.6992      1.00000
     46      -1.5121      1.00000
     47      -1.5027      1.00000
     48      -1.3688      1.00000
     49      -1.3666      1.00000
     50      -1.3529      1.00000
     51      -1.1494      1.00000
     52      -1.1276      1.00000
     53      -1.0776      1.00000
     54      -0.8856      1.00000
     55      -0.8380      1.00000
     56      -0.6636      1.00000
     57      -0.6233      1.00000
     58      -0.5415      1.00000
     59      -0.4607      1.00000
     60      -0.4235      1.00000
     61      -0.1960      1.00000
     62      -0.1671      1.00000
     63      -0.0762      1.00000
     64       0.0270      1.00000
     65       0.0294      1.00000
     66       0.1471      1.00000
     67       0.1502      1.00000
     68       0.2666      1.00000
     69       0.2977      1.00000
     70       0.3195      1.00000
     71       0.3493      1.00000
     72       0.4072      1.00000
     73       0.5053      1.00000
     74       0.5085      1.00000
     75       0.5982      1.00000
     76       0.7400      1.00000
     77       0.9010      1.00000
     78       0.9062      1.00000
     79       1.2280      1.00000
     80       1.2486      1.00000
     81       4.1679      0.00000
     82       4.2441      0.00000
     83       4.4881      0.00000
     84       4.5844      0.00000
     85       4.7496      0.00000
     86       4.7680      0.00000
     87       4.7878      0.00000
     88       4.7925      0.00000
     89       4.8472      0.00000
     90       4.8875      0.00000
     91       5.5407      0.00000
     92       5.5543      0.00000
     93       5.8489      0.00000
     94       5.9561      0.00000
     95       6.2760      0.00000
     96       6.3978      0.00000
     97       6.6368      0.00000
     98       6.6913      0.00000
     99       7.7414      0.00000
    100       7.9119      0.00000
    101       8.4348      0.00000
    102       9.4940      0.00000
    103      10.5007      0.00000
    104      10.6447      0.00000
    105      10.6670      0.00000
    106      10.7206      0.00000
    107      10.7801      0.00000
    108      10.9581      0.00000
    109      11.2817      0.00000
    110      11.3067      0.00000
    111      11.3478      0.00000
    112      11.4210      0.00000
    113      11.5678      0.00000
    114      11.8530      0.00000
    115      11.9539      0.00000
    116      12.0633      0.00000

 k-point     5 :       0.2500    0.3333    0.0000
  band No.  band energies     occupation 
      1     -19.1195      1.00000
      2     -19.0365      1.00000
      3     -18.9771      1.00000
      4     -18.9541      1.00000
      5     -16.7482      1.00000
      6     -16.6960      1.00000
      7     -16.6563      1.00000
      8     -16.6103      1.00000
      9     -16.5210      1.00000
     10     -16.5044      1.00000
     11     -16.4939      1.00000
     12     -16.4835      1.00000
     13     -16.4582      1.00000
     14     -16.4536      1.00000
     15     -16.4360      1.00000
     16     -16.4299      1.00000
     17     -14.7287      1.00000
     18     -14.7270      1.00000
     19     -14.2685      1.00000
     20     -14.2563      1.00000
     21      -6.7675      1.00000
     22      -6.5920      1.00000
     23      -6.5027      1.00000
     24      -6.3628      1.00000
     25      -4.6791      1.00000
     26      -4.6607      1.00000
     27      -4.4477      1.00000
     28      -4.2953      1.00000
     29      -4.2750      1.00000
     30      -4.2126      1.00000
     31      -4.1673      1.00000
     32      -4.0564      1.00000
     33      -4.0120      1.00000
     34      -3.8629      1.00000
     35      -3.8424      1.00000
     36      -3.7577      1.00000
     37      -2.4777      1.00000
     38      -2.4038      1.00000
     39      -2.2938      1.00000
     40      -2.2926      1.00000
     41      -2.1550      1.00000
     42      -2.1167      1.00000
     43      -1.9353      1.00000
     44      -1.9253      1.00000
     45      -1.8128      1.00000
     46      -1.7052      1.00000
     47      -1.6389      1.00000
     48      -1.5294      1.00000
     49      -1.3937      1.00000
     50      -1.3142      1.00000
     51      -1.2263      1.00000
     52      -1.2168      1.00000
     53      -1.0953      1.00000
     54      -0.9073      1.00000
     55      -0.8252      1.00000
     56      -0.7078      1.00000
     57      -0.7067      1.00000
     58      -0.6534      1.00000
     59      -0.2700      1.00000
     60      -0.2444      1.00000
     61      -0.1818      1.00000
     62      -0.1756      1.00000
     63      -0.1225      1.00000
     64      -0.1210      1.00000
     65       0.0311      1.00000
     66       0.0633      1.00000
     67       0.1347      1.00000
     68       0.1382      1.00000
     69       0.2464      1.00000
     70       0.2631      1.00000
     71       0.2973      1.00000
     72       0.3211      1.00000
     73       0.4116      1.00000
     74       0.5366      1.00000
     75       0.6714      1.00000
     76       0.7533      1.00000
     77       0.8830      1.00000
     78       0.9337      1.00000
     79       1.1147      1.00000
     80       1.1298      1.00000
     81       4.1796      0.00000
     82       4.2470      0.00000
     83       4.3892      0.00000
     84       4.4757      0.00000
     85       4.6185      0.00000
     86       4.7034      0.00000
     87       4.7881      0.00000
     88       4.8094      0.00000
     89       4.8235      0.00000
     90       4.8941      0.00000
     91       5.4664      0.00000
     92       5.4846      0.00000
     93       6.2407      0.00000
     94       6.3198      0.00000
     95       6.5551      0.00000
     96       6.5787      0.00000
     97       6.7560      0.00000
     98       6.7738      0.00000
     99       7.8993      0.00000
    100       8.0086      0.00000
    101       8.7153      0.00000
    102       9.6205      0.00000
    103      10.3480      0.00000
    104      10.4122      0.00000
    105      10.6140      0.00000
    106      10.7640      0.00000
    107      10.9903      0.00000
    108      11.0590      0.00000
    109      11.1771      0.00000
    110      11.2782      0.00000
    111      11.3987      0.00000
    112      11.4496      0.00000
    113      11.7719      0.00000
    114      11.7850      0.00000
    115      11.9230      0.00000
    116      12.0904      0.00000

 k-point     6 :       0.5000    0.3333    0.0000
  band No.  band energies     occupation 
      1     -19.0466      1.00000
      2     -19.0466      1.00000
      3     -18.9587      1.00000
      4     -18.9587      1.00000
      5     -16.7236      1.00000
      6     -16.7236      1.00000
      7     -16.7136      1.00000
      8     -16.7136      1.00000
      9     -16.5136      1.00000
     10     -16.5136      1.00000
     11     -16.4810      1.00000
     12     -16.4810      1.00000
     13     -16.4645      1.00000
     14     -16.4644      1.00000
     15     -16.4339      1.00000
     16     -16.4339      1.00000
     17     -14.7213      1.00000
     18     -14.7213      1.00000
     19     -14.2630      1.00000
     20     -14.2629      1.00000
     21      -6.5835      1.00000
     22      -6.5835      1.00000
     23      -6.3237      1.00000
     24      -6.3237      1.00000
     25      -4.6638      1.00000
     26      -4.6638      1.00000
     27      -4.3255      1.00000
     28      -4.3255      1.00000
     29      -4.1440      1.00000
     30      -4.1440      1.00000
     31      -4.0944      1.00000
     32      -4.0944      1.00000
     33      -3.8538      1.00000
     34      -3.8538      1.00000
     35      -3.7707      1.00000
     36      -3.7707      1.00000
     37      -2.3782      1.00000
     38      -2.3782      1.00000
     39      -2.2909      1.00000
     40      -2.2909      1.00000
     41      -2.1939      1.00000
     42      -2.1939      1.00000
     43      -2.0064      1.00000
     44      -2.0064      1.00000
     45      -1.8615      1.00000
     46      -1.8615      1.00000
     47      -1.7275      1.00000
     48      -1.7275      1.00000
     49      -1.4400      1.00000
     50      -1.4400      1.00000
     51      -1.3040      1.00000
     52      -1.3040      1.00000
     53      -0.9958      1.00000
     54      -0.9958      1.00000
     55      -0.8892      1.00000
     56      -0.8892      1.00000
     57      -0.7057      1.00000
     58      -0.7057      1.00000
     59      -0.3506      1.00000
     60      -0.3506      1.00000
     61      -0.1417      1.00000
     62      -0.1417      1.00000
     63      -0.1310      1.00000
     64      -0.1310      1.00000
     65       0.0300      1.00000
     66       0.0300      1.00000
     67       0.1771      1.00000
     68       0.1771      1.00000
     69       0.2684      1.00000
     70       0.2684      1.00000
     71       0.3355      1.00000
     72       0.3355      1.00000
     73       0.4170      1.00000
     74       0.4170      1.00000
     75       0.7561      1.00000
     76       0.7561      1.00000
     77       0.8152      1.00000
     78       0.8152      1.00000
     79       1.0588      1.00000
     80       1.0588      1.00000
     81       4.2718      0.00000
     82       4.2718      0.00000
     83       4.2867      0.00000
     84       4.2867      0.00000
     85       4.5410      0.00000
     86       4.5410      0.00000
     87       4.8053      0.00000
     88       4.8053      0.00000
     89       4.8740      0.00000
     90       4.8740      0.00000
     91       5.4221      0.00000
     92       5.4221      0.00000
     93       6.5683      0.00000
     94       6.5683      0.00000
     95       6.7122      0.00000
     96       6.7122      0.00000
     97       6.9502      0.00000
     98       6.9502      0.00000
     99       8.1335      0.00000
    100       8.1335      0.00000
    101       9.4359      0.00000
    102       9.4359      0.00000
    103      10.1089      0.00000
    104      10.1089      0.00000
    105      10.6251      0.00000
    106      10.6251      0.00000
    107      11.1955      0.00000
    108      11.1955      0.00000
    109      11.3251      0.00000
    110      11.3251      0.00000
    111      11.4107      0.00000
    112      11.4107      0.00000
    113      11.7193      0.00000
    114      11.7193      0.00000
    115      12.0712      0.00000
    116      12.0712      0.00000

 k-point     7 :       0.0000    0.0000    0.3333
  band No.  band energies     occupation 
      1     -19.1629      1.00000
      2     -19.0623      1.00000
      3     -18.9869      1.00000
      4     -18.9531      1.00000
      5     -16.7099      1.00000
      6     -16.6991      1.00000
      7     -16.5802      1.00000
      8     -16.5274      1.00000
      9     -16.5076      1.00000
     10     -16.5033      1.00000
     11     -16.4836      1.00000
     12     -16.4770      1.00000
     13     -16.4616      1.00000
     14     -16.4612      1.00000
     15     -16.4580      1.00000
     16     -16.4433      1.00000
     17     -14.6349      1.00000
     18     -14.6179      1.00000
     19     -14.4037      1.00000
     20     -14.3699      1.00000
     21      -6.9408      1.00000
     22      -6.8137      1.00000
     23      -6.5156      1.00000
     24      -6.3578      1.00000
     25      -4.7073      1.00000
     26      -4.6705      1.00000
     27      -4.4366      1.00000
     28      -4.4070      1.00000
     29      -4.3569      1.00000
     30      -4.2579      1.00000
     31      -4.2173      1.00000
     32      -4.0978      1.00000
     33      -4.0809      1.00000
     34      -4.0428      1.00000
     35      -3.7184      1.00000
     36      -3.6850      1.00000
     37      -2.2781      1.00000
     38      -2.2759      1.00000
     39      -2.2031      1.00000
     40      -2.0666      1.00000
     41      -2.0526      1.00000
     42      -2.0299      1.00000
     43      -2.0058      1.00000
     44      -1.9029      1.00000
     45      -1.7072      1.00000
     46      -1.6616      1.00000
     47      -1.5532      1.00000
     48      -1.4106      1.00000
     49      -1.3615      1.00000
     50      -1.2940      1.00000
     51      -1.1478      1.00000
     52      -1.1318      1.00000
     53      -1.0192      1.00000
     54      -1.0129      1.00000
     55      -1.0014      1.00000
     56      -0.7457      1.00000
     57      -0.7262      1.00000
     58      -0.7138      1.00000
     59      -0.5943      1.00000
     60      -0.4036      1.00000
     61      -0.3427      1.00000
     62      -0.1594      1.00000
     63      -0.1025      1.00000
     64       0.0095      1.00000
     65       0.0160      1.00000
     66       0.0350      1.00000
     67       0.1019      1.00000
     68       0.1479      1.00000
     69       0.2428      1.00000
     70       0.2927      1.00000
     71       0.4743      1.00000
     72       0.5419      1.00000
     73       0.5723      1.00000
     74       0.6807      1.00000
     75       0.7503      1.00000
     76       0.8262      1.00000
     77       0.8533      1.00000
     78       0.8765      1.00000
     79       1.0024      1.00000
     80       1.1836      1.00000
     81       4.1693      0.00000
     82       4.2266      0.00000
     83       4.5464      0.00000
     84       4.6045      0.00000
     85       4.8656      0.00000
     86       4.9146      0.00000
     87       4.9536      0.00000
     88       4.9754      0.00000
     89       5.0009      0.00000
     90       5.1289      0.00000
     91       5.3032      0.00000
     92       5.3570      0.00000
     93       5.7672      0.00000
     94       5.8769      0.00000
     95       6.3265      0.00000
     96       6.4174      0.00000
     97       6.6364      0.00000
     98       6.9664      0.00000
     99       7.2272      0.00000
    100       7.6526      0.00000
    101       8.5085      0.00000
    102       9.5384      0.00000
    103      10.5598      0.00000
    104      10.6303      0.00000
    105      10.6752      0.00000
    106      10.6761      0.00000
    107      11.0824      0.00000
    108      11.1088      0.00000
    109      11.2777      0.00000
    110      11.2780      0.00000
    111      11.3730      0.00000
    112      11.4418      0.00000
    113      11.6979      0.00000
    114      11.7274      0.00000
    115      12.0890      0.00000
    116      12.2319      0.00000

 k-point     8 :       0.2500    0.0000    0.3333
  band No.  band energies     occupation 
      1     -19.1210      1.00000
      2     -19.0283      1.00000
      3     -18.9935      1.00000
      4     -18.9492      1.00000
      5     -16.7278      1.00000
      6     -16.7156      1.00000
      7     -16.6276      1.00000
      8     -16.5651      1.00000
      9     -16.5315      1.00000
     10     -16.5073      1.00000
     11     -16.5024      1.00000
     12     -16.4828      1.00000
     13     -16.4697      1.00000
     14     -16.4662      1.00000
     15     -16.4460      1.00000
     16     -16.4373      1.00000
     17     -14.6277      1.00000
     18     -14.6153      1.00000
     19     -14.3973      1.00000
     20     -14.3735      1.00000
     21      -6.7940      1.00000
     22      -6.6501      1.00000
     23      -6.4818      1.00000
     24      -6.2966      1.00000
     25      -4.6635      1.00000
     26      -4.6300      1.00000
     27      -4.5032      1.00000
     28      -4.3132      1.00000
     29      -4.2922      1.00000
     30      -4.2603      1.00000
     31      -4.2174      1.00000
     32      -4.1097      1.00000
     33      -3.9905      1.00000
     34      -3.9892      1.00000
     35      -3.6433      1.00000
     36      -3.6257      1.00000
     37      -2.3140      1.00000
     38      -2.2709      1.00000
     39      -2.1762      1.00000
     40      -2.0973      1.00000
     41      -2.0897      1.00000
     42      -1.9656      1.00000
     43      -1.9563      1.00000
     44      -1.8358      1.00000
     45      -1.7991      1.00000
     46      -1.6796      1.00000
     47      -1.5290      1.00000
     48      -1.5123      1.00000
     49      -1.4717      1.00000
     50      -1.4245      1.00000
     51      -1.2821      1.00000
     52      -1.2373      1.00000
     53      -1.1328      1.00000
     54      -1.0765      1.00000
     55      -1.0565      1.00000
     56      -0.9288      1.00000
     57      -0.7102      1.00000
     58      -0.6782      1.00000
     59      -0.5433      1.00000
     60      -0.3516      1.00000
     61      -0.3507      1.00000
     62      -0.1807      1.00000
     63      -0.1546      1.00000
     64      -0.0870      1.00000
     65      -0.0520      1.00000
     66       0.0010      1.00000
     67       0.1015      1.00000
     68       0.1094      1.00000
     69       0.3160      1.00000
     70       0.3596      1.00000
     71       0.4625      1.00000
     72       0.5174      1.00000
     73       0.5240      1.00000
     74       0.5564      1.00000
     75       0.6506      1.00000
     76       0.7127      1.00000
     77       0.8603      1.00000
     78       0.8718      1.00000
     79       0.9481      1.00000
     80       1.0640      1.00000
     81       4.1896      0.00000
     82       4.2429      0.00000
     83       4.4603      0.00000
     84       4.5007      0.00000
     85       4.7826      0.00000
     86       4.8608      0.00000
     87       4.8931      0.00000
     88       4.9500      0.00000
     89       5.0253      0.00000
     90       5.1248      0.00000
     91       5.2149      0.00000
     92       5.2550      0.00000
     93       6.1775      0.00000
     94       6.2624      0.00000
     95       6.5637      0.00000
     96       6.5789      0.00000
     97       6.8611      0.00000
     98       7.0004      0.00000
     99       7.4283      0.00000
    100       7.7004      0.00000
    101       8.7973      0.00000
    102       9.7338      0.00000
    103      10.3587      0.00000
    104      10.5315      0.00000
    105      10.7195      0.00000
    106      10.8162      0.00000
    107      10.9502      0.00000
    108      11.1216      0.00000
    109      11.2927      0.00000
    110      11.3164      0.00000
    111      11.3815      0.00000
    112      11.3896      0.00000
    113      11.7061      0.00000
    114      11.8690      0.00000
    115      12.1092      0.00000
    116      12.1780      0.00000

 k-point     9 :       0.5000    0.0000    0.3333
  band No.  band energies     occupation 
      1     -19.0392      1.00000
      2     -19.0392      1.00000
      3     -18.9694      1.00000
      4     -18.9694      1.00000
      5     -16.7077      1.00000
      6     -16.7077      1.00000
      7     -16.6934      1.00000
      8     -16.6934      1.00000
      9     -16.5217      1.00000
     10     -16.5217      1.00000
     11     -16.4946      1.00000
     12     -16.4946      1.00000
     13     -16.4609      1.00000
     14     -16.4609      1.00000
     15     -16.4448      1.00000
     16     -16.4448      1.00000
     17     -14.6168      1.00000
     18     -14.6168      1.00000
     19     -14.3840      1.00000
     20     -14.3840      1.00000
     21      -6.5507      1.00000
     22      -6.5507      1.00000
     23      -6.3649      1.00000
     24      -6.3649      1.00000
     25      -4.6026      1.00000
     26      -4.6026      1.00000
     27      -4.4418      1.00000
     28      -4.4418      1.00000
     29      -4.1822      1.00000
     30      -4.1822      1.00000
     31      -4.1170      1.00000
     32      -4.1170      1.00000
     33      -3.7672      1.00000
     34      -3.7672      1.00000
     35      -3.7512      1.00000
     36      -3.7512      1.00000
     37      -2.2659      1.00000
     38      -2.2659      1.00000
     39      -2.2187      1.00000
     40      -2.2187      1.00000
     41      -2.0416      1.00000
     42      -2.0416      1.00000
     43      -1.8390      1.00000
     44      -1.8390      1.00000
     45      -1.8212      1.00000
     46      -1.8212      1.00000
     47      -1.6088      1.00000
     48      -1.6088      1.00000
     49      -1.4742      1.00000
     50      -1.4742      1.00000
     51      -1.3026      1.00000
     52      -1.3026      1.00000
     53      -1.1583      1.00000
     54      -1.1583      1.00000
     55      -0.9869      1.00000
     56      -0.9869      1.00000
     57      -0.9610      1.00000
     58      -0.9610      1.00000
     59      -0.5658      1.00000
     60      -0.5658      1.00000
     61      -0.3093      1.00000
     62      -0.3092      1.00000
     63      -0.1268      1.00000
     64      -0.1268      1.00000
     65       0.0892      1.00000
     66       0.0892      1.00000
     67       0.2071      1.00000
     68       0.2071      1.00000
     69       0.3025      1.00000
     70       0.3025      1.00000
     71       0.3503      1.00000
     72       0.3503      1.00000
     73       0.6137      1.00000
     74       0.6137      1.00000
     75       0.7383      1.00000
     76       0.7383      1.00000
     77       0.7579      1.00000
     78       0.7579      1.00000
     79       0.8932      1.00000
     80       0.8932      1.00000
     81       4.3060      0.00000
     82       4.3060      0.00000
     83       4.3259      0.00000
     84       4.3259      0.00000
     85       4.7007      0.00000
     86       4.7007      0.00000
     87       4.9308      0.00000
     88       4.9308      0.00000
     89       5.0914      0.00000
     90       5.0914      0.00000
     91       5.1586      0.00000
     92       5.1586      0.00000
     93       6.5742      0.00000
     94       6.5742      0.00000
     95       6.6709      0.00000
     96       6.6709      0.00000
     97       7.1019      0.00000
     98       7.1019      0.00000
     99       7.7391      0.00000
    100       7.7391      0.00000
    101       9.5640      0.00000
    102       9.5640      0.00000
    103      10.1726      0.00000
    104      10.1726      0.00000
    105      10.8628      0.00000
    106      10.8628      0.00000
    107      11.0096      0.00000
    108      11.0096      0.00000
    109      11.2763      0.00000
    110      11.2763      0.00000
    111      11.3985      0.00000
    112      11.3985      0.00000
    113      11.9684      0.00000
    114      11.9684      0.00000
    115      12.0587      0.00000
    116      12.0587      0.00000

 k-point    10 :       0.0000    0.3333    0.3333
  band No.  band energies     occupation 
      1     -19.1316      1.00000
      2     -19.0783      1.00000
      3     -18.9841      1.00000
      4     -18.9682      1.00000
      5     -16.7259      1.00000
      6     -16.6918      1.00000
      7     -16.6004      1.00000
      8     -16.5704      1.00000
      9     -16.5180      1.00000
     10     -16.4982      1.00000
     11     -16.4809      1.00000
     12     -16.4716      1.00000
     13     -16.4501      1.00000
     14     -16.4465      1.00000
     15     -16.4439      1.00000
     16     -16.4266      1.00000
     17     -14.6275      1.00000
     18     -14.6188      1.00000
     19     -14.3933      1.00000
     20     -14.3763      1.00000
     21      -6.8462      1.00000
     22      -6.7232      1.00000
     23      -6.6019      1.00000
     24      -6.4989      1.00000
     25      -4.6922      1.00000
     26      -4.6621      1.00000
     27      -4.4082      1.00000
     28      -4.3214      1.00000
     29      -4.2924      1.00000
     30      -4.2128      1.00000
     31      -4.1754      1.00000
     32      -4.1731      1.00000
     33      -4.0030      1.00000
     34      -3.9728      1.00000
     35      -3.9112      1.00000
     36      -3.8412      1.00000
     37      -2.3271      1.00000
     38      -2.2192      1.00000
     39      -2.1903      1.00000
     40      -2.1431      1.00000
     41      -2.1008      1.00000
     42      -2.0331      1.00000
     43      -1.8533      1.00000
     44      -1.7442      1.00000
     45      -1.7420      1.00000
     46      -1.6039      1.00000
     47      -1.5295      1.00000
     48      -1.4967      1.00000
     49      -1.3804      1.00000
     50      -1.3525      1.00000
     51      -1.3315      1.00000
     52      -1.2188      1.00000
     53      -1.1560      1.00000
     54      -0.9215      1.00000
     55      -0.8210      1.00000
     56      -0.7554      1.00000
     57      -0.7077      1.00000
     58      -0.7023      1.00000
     59      -0.4715      1.00000
     60      -0.4709      1.00000
     61      -0.3600      1.00000
     62      -0.2737      1.00000
     63      -0.1137      1.00000
     64      -0.0830      1.00000
     65       0.0070      1.00000
     66       0.0345      1.00000
     67       0.2078      1.00000
     68       0.2536      1.00000
     69       0.2549      1.00000
     70       0.3050      1.00000
     71       0.4840      1.00000
     72       0.5609      1.00000
     73       0.5782      1.00000
     74       0.6126      1.00000
     75       0.7012      1.00000
     76       0.7368      1.00000
     77       0.8504      1.00000
     78       0.8579      1.00000
     79       1.1532      1.00000
     80       1.2250      1.00000
     81       4.1952      0.00000
     82       4.2336      0.00000
     83       4.5421      0.00000
     84       4.5859      0.00000
     85       4.8653      0.00000
     86       4.9027      0.00000
     87       4.9307      0.00000
     88       4.9761      0.00000
     89       5.0108      0.00000
     90       5.0808      0.00000
     91       5.3262      0.00000
     92       5.3524      0.00000
     93       5.8755      0.00000
     94       5.9267      0.00000
     95       6.3070      0.00000
     96       6.3608      0.00000
     97       6.7197      0.00000
     98       6.8751      0.00000
     99       7.3433      0.00000
    100       7.5482      0.00000
    101       8.8768      0.00000
    102       9.5026      0.00000
    103      10.3648      0.00000
    104      10.4962      0.00000
    105      10.6902      0.00000
    106      10.7167      0.00000
    107      11.0371      0.00000
    108      11.1361      0.00000
    109      11.2836      0.00000
    110      11.3279      0.00000
    111      11.3490      0.00000
    112      11.4247      0.00000
    113      11.4474      0.00000
    114      11.7150      0.00000
    115      11.9568      0.00000
    116      12.1085      0.00000

 k-point    11 :       0.2500    0.3333    0.3333
  band No.  band energies     occupation 
      1     -19.0933      1.00000
      2     -19.0456      1.00000
      3     -18.9842      1.00000
      4     -18.9640      1.00000
      5     -16.7456      1.00000
      6     -16.7199      1.00000
      7     -16.6453      1.00000
      8     -16.6208      1.00000
      9     -16.5168      1.00000
     10     -16.4998      1.00000
     11     -16.4895      1.00000
     12     -16.4781      1.00000
     13     -16.4618      1.00000
     14     -16.4592      1.00000
     15     -16.4335      1.00000
     16     -16.4224      1.00000
     17     -14.6207      1.00000
     18     -14.6143      1.00000
     19     -14.3900      1.00000
     20     -14.3780      1.00000
     21      -6.7168      1.00000
     22      -6.5929      1.00000
     23      -6.5352      1.00000
     24      -6.4229      1.00000
     25      -4.6417      1.00000
     26      -4.6343      1.00000
     27      -4.3748      1.00000
     28      -4.3041      1.00000
     29      -4.2456      1.00000
     30      -4.2331      1.00000
     31      -4.1898      1.00000
     32      -4.0874      1.00000
     33      -4.0070      1.00000
     34      -3.9132      1.00000
     35      -3.7661      1.00000
     36      -3.7549      1.00000
     37      -2.3251      1.00000
     38      -2.2392      1.00000
     39      -2.1925      1.00000
     40      -2.1403      1.00000
     41      -2.0557      1.00000
     42      -2.0152      1.00000
     43      -1.9815      1.00000
     44      -1.8568      1.00000
     45      -1.7990      1.00000
     46      -1.7105      1.00000
     47      -1.5662      1.00000
     48      -1.5523      1.00000
     49      -1.4424      1.00000
     50      -1.3652      1.00000
     51      -1.3435      1.00000
     52      -1.3181      1.00000
     53      -1.2010      1.00000
     54      -1.1775      1.00000
     55      -0.9302      1.00000
     56      -0.8596      1.00000
     57      -0.7101      1.00000
     58      -0.6577      1.00000
     59      -0.5364      1.00000
     60      -0.4473      1.00000
     61      -0.2332      1.00000
     62      -0.1661      1.00000
     63      -0.1410      1.00000
     64      -0.0324      1.00000
     65       0.0186      1.00000
     66       0.0508      1.00000
     67       0.0801      1.00000
     68       0.1813      1.00000
     69       0.2600      1.00000
     70       0.3352      1.00000
     71       0.3807      1.00000
     72       0.4501      1.00000
     73       0.5508      1.00000
     74       0.5576      1.00000
     75       0.6417      1.00000
     76       0.7008      1.00000
     77       0.8231      1.00000
     78       0.8979      1.00000
     79       1.0560      1.00000
     80       1.0949      1.00000
     81       4.2107      0.00000
     82       4.2469      0.00000
     83       4.4510      0.00000
     84       4.4916      0.00000
     85       4.7880      0.00000
     86       4.8212      0.00000
     87       4.9073      0.00000
     88       4.9281      0.00000
     89       5.0285      0.00000
     90       5.0762      0.00000
     91       5.2421      0.00000
     92       5.2628      0.00000
     93       6.2643      0.00000
     94       6.3022      0.00000
     95       6.5672      0.00000
     96       6.5844      0.00000
     97       6.8688      0.00000
     98       6.9445      0.00000
     99       7.4896      0.00000
    100       7.6238      0.00000
    101       9.1199      0.00000
    102       9.6890      0.00000
    103      10.2861      0.00000
    104      10.4338      0.00000
    105      10.6484      0.00000
    106      10.7726      0.00000
    107      10.9442      0.00000
    108      11.0200      0.00000
    109      11.2227      0.00000
    110      11.3125      0.00000
    111      11.4048      0.00000
    112      11.4772      0.00000
    113      11.6199      0.00000
    114      11.8416      0.00000
    115      12.0237      0.00000
    116      12.0913      0.00000

 k-point    12 :       0.5000    0.3333    0.3333
  band No.  band energies     occupation 
      1     -19.0246      1.00000
      2     -19.0246      1.00000
      3     -18.9806      1.00000
      4     -18.9806      1.00000
      5     -16.7293      1.00000
      6     -16.7293      1.00000
      7     -16.7173      1.00000
      8     -16.7173      1.00000
      9     -16.5088      1.00000
     10     -16.5088      1.00000
     11     -16.4845      1.00000
     12     -16.4845      1.00000
     13     -16.4571      1.00000
     14     -16.4571      1.00000
     15     -16.4336      1.00000
     16     -16.4336      1.00000
     17     -14.6121      1.00000
     18     -14.6121      1.00000
     19     -14.3833      1.00000
     20     -14.3833      1.00000
     21      -6.5313      1.00000
     22      -6.5313      1.00000
     23      -6.4046      1.00000
     24      -6.4046      1.00000
     25      -4.5650      1.00000
     26      -4.5650      1.00000
     27      -4.3979      1.00000
     28      -4.3979      1.00000
     29      -4.1205      1.00000
     30      -4.1205      1.00000
     31      -4.0970      1.00000
     32      -4.0970      1.00000
     33      -3.8465      1.00000
     34      -3.8465      1.00000
     35      -3.7441      1.00000
     36      -3.7441      1.00000
     37      -2.2921      1.00000
     38      -2.2921      1.00000
     39      -2.2295      1.00000
     40      -2.2295      1.00000
     41      -2.0567      1.00000
     42      -2.0567      1.00000
     43      -1.9200      1.00000
     44      -1.9200      1.00000
     45      -1.8329      1.00000
     46      -1.8329      1.00000
     47      -1.6510      1.00000
     48      -1.6510      1.00000
     49      -1.5267      1.00000
     50      -1.5267      1.00000
     51      -1.3574      1.00000
     52      -1.3574      1.00000
     53      -1.2521      1.00000
     54      -1.2521      1.00000
     55      -1.0153      1.00000
     56      -1.0153      1.00000
     57      -0.7229      1.00000
     58      -0.7229      1.00000
     59      -0.6092      1.00000
     60      -0.6092      1.00000
     61      -0.2080      1.00000
     62      -0.2080      1.00000
     63      -0.0593      1.00000
     64      -0.0593      1.00000
     65       0.1330      1.00000
     66       0.1330      1.00000
     67       0.2197      1.00000
     68       0.2197      1.00000
     69       0.3113      1.00000
     70       0.3113      1.00000
     71       0.3584      1.00000
     72       0.3584      1.00000
     73       0.5184      1.00000
     74       0.5185      1.00000
     75       0.6414      1.00000
     76       0.6414      1.00000
     77       0.8253      1.00000
     78       0.8253      1.00000
     79       0.9458      1.00000
     80       0.9458      1.00000
     81       4.3014      0.00000
     82       4.3014      0.00000
     83       4.3351      0.00000
     84       4.3351      0.00000
     85       4.6922      0.00000
     86       4.6922      0.00000
     87       4.9211      0.00000
     88       4.9211      0.00000
     89       5.0483      0.00000
     90       5.0483      0.00000
     91       5.1880      0.00000
     92       5.1880      0.00000
     93       6.6114      0.00000
     94       6.6114      0.00000
     95       6.6950      0.00000
     96       6.6950      0.00000
     97       7.0953      0.00000
     98       7.0953      0.00000
     99       7.7248      0.00000
    100       7.7248      0.00000
    101       9.7409      0.00000
    102       9.7409      0.00000
    103      10.1173      0.00000
    104      10.1173      0.00000
    105      10.6549      0.00000
    106      10.6549      0.00000
    107      10.9153      0.00000
    108      10.9153      0.00000
    109      11.3468      0.00000
    110      11.3468      0.00000
    111      11.4446      0.00000
    112      11.4446      0.00000
    113      11.9652      0.00000
    114      11.9652      0.00000
    115      12.1152      0.00000
    116      12.1152      0.00000
 Fermi energy:         1.4837783741

 spin component 2

 k-point     1 :       0.0000    0.0000    0.0000
  band No.  band energies     occupation 
      1     -19.2068      1.00000
      2     -19.0081      1.00000
      3     -18.9894      1.00000
      4     -18.9564      1.00000
      5     -16.7194      1.00000
      6     -16.6978      1.00000
      7     -16.6222      1.00000
      8     -16.5447      1.00000
      9     -16.5233      1.00000
     10     -16.4941      1.00000
     11     -16.4775      1.00000
     12     -16.4657      1.00000
     13     -16.4560      1.00000
     14     -16.4498      1.00000
     15     -16.4367      1.00000
     16     -16.4252      1.00000
     17     -14.7425      1.00000
     18     -14.7405      1.00000
     19     -14.2784      1.00000
     20     -14.2439      1.00000
     21      -6.9953      1.00000
     22      -6.7334      1.00000
     23      -6.5981      1.00000
     24      -6.2871      1.00000
     25      -4.7625      1.00000
     26      -4.6898      1.00000
     27      -4.6103      1.00000
     28      -4.4693      1.00000
     29      -4.4415      1.00000
     30      -4.1740      1.00000
     31      -4.1598      1.00000
     32      -4.0205      1.00000
     33      -3.9086      1.00000
     34      -3.9001      1.00000
     35      -3.7596      1.00000
     36      -3.6825      1.00000
     37      -2.4571      1.00000
     38      -2.3927      1.00000
     39      -2.3752      1.00000
     40      -2.2475      1.00000
     41      -2.2324      1.00000
     42      -2.1319      1.00000
     43      -1.9660      1.00000
     44      -1.8611      1.00000
     45      -1.7520      1.00000
     46      -1.6602      1.00000
     47      -1.6363      1.00000
     48      -1.4425      1.00000
     49      -1.3298      1.00000
     50      -1.1732      1.00000
     51      -1.1587      1.00000
     52      -1.1220      1.00000
     53      -1.1148      1.00000
     54      -1.0725      1.00000
     55      -0.7249      1.00000
     56      -0.7094      1.00000
     57      -0.5296      1.00000
     58      -0.4442      1.00000
     59      -0.3845      1.00000
     60      -0.2774      1.00000
     61      -0.2339      1.00000
     62      -0.1744      1.00000
     63      -0.1647      1.00000
     64      -0.1560      1.00000
     65       0.1350      1.00000
     66       0.1845      1.00000
     67       0.2156      1.00000
     68       0.2200      1.00000
     69       0.3249      1.00000
     70       0.3366      1.00000
     71       0.3946      1.00000
     72       0.4121      1.00000
     73       0.5170      1.00000
     74       0.6130      1.00000
     75       0.7726      1.00000
     76       0.7842      1.00000
     77       0.8397      1.00000
     78       0.9001      1.00000
     79       1.0374      1.00000
     80       1.1783      1.00000
     81       4.1441      0.00000
     82       4.2779      0.00000
     83       4.4121      0.00000
     84       4.5968      0.00000
     85       4.7094      0.00000
     86       4.7533      0.00000
     87       4.7620      0.00000
     88       4.8110      0.00000
     89       4.8950      0.00000
     90       4.9527      0.00000
     91       5.5298      0.00000
     92       5.5563      0.00000
     93       5.7085      0.00000
     94       5.9409      0.00000
     95       6.2607      0.00000
     96       6.4708      0.00000
     97       6.6181      0.00000
     98       6.7298      0.00000
     99       7.6563      0.00000
    100       7.9909      0.00000
    101       7.9965      0.00000
    102      10.2675      0.00000
    103      10.2865      0.00000
    104      10.5024      0.00000
    105      10.6591      0.00000
    106      10.6692      0.00000
    107      10.8961      0.00000
    108      10.9969      0.00000
    109      11.0179      0.00000
    110      11.3538      0.00000
    111      11.4887      0.00000
    112      11.5640      0.00000
    113      11.7822      0.00000
    114      11.8071      0.00000
    115      11.9802      0.00000
    116      12.2275      0.00000

 k-point     2 :       0.2500    0.0000    0.0000
  band No.  band energies     occupation 
      1     -19.1622      1.00000
      2     -19.0183      1.00000
      3     -18.9652      1.00000
      4     -18.9413      1.00000
      5     -16.7386      1.00000
      6     -16.7124      1.00000
      7     -16.6718      1.00000
      8     -16.5531      1.00000
      9     -16.5369      1.00000
     10     -16.5236      1.00000
     11     -16.4872      1.00000
     12     -16.4678      1.00000
     13     -16.4659      1.00000
     14     -16.4575      1.00000
     15     -16.4444      1.00000
     16     -16.4216      1.00000
     17     -14.7359      1.00000
     18     -14.7334      1.00000
     19     -14.2735      1.00000
     20     -14.2492      1.00000
     21      -6.8572      1.00000
     22      -6.5719      1.00000
     23      -6.5623      1.00000
     24      -6.2015      1.00000
     25      -4.7048      1.00000
     26      -4.6863      1.00000
     27      -4.6629      1.00000
     28      -4.3669      1.00000
     29      -4.3243      1.00000
     30      -4.2400      1.00000
     31      -4.1957      1.00000
     32      -3.9797      1.00000
     33      -3.9069      1.00000
     34      -3.8201      1.00000
     35      -3.6390      1.00000
     36      -3.6045      1.00000
     37      -2.4275      1.00000
     38      -2.4199      1.00000
     39      -2.4138      1.00000
     40      -2.2442      1.00000
     41      -2.1970      1.00000
     42      -2.1141      1.00000
     43      -2.0190      1.00000
     44      -1.9262      1.00000
     45      -1.7884      1.00000
     46      -1.6981      1.00000
     47      -1.6959      1.00000
     48      -1.4626      1.00000
     49      -1.4623      1.00000
     50      -1.3318      1.00000
     51      -1.2994      1.00000
     52      -1.1996      1.00000
     53      -1.1925      1.00000
     54      -0.7639      1.00000
     55      -0.7616      1.00000
     56      -0.7342      1.00000
     57      -0.6332      1.00000
     58      -0.5254      1.00000
     59      -0.3768      1.00000
     60      -0.2889      1.00000
     61      -0.2828      1.00000
     62      -0.2121      1.00000
     63      -0.1710      1.00000
     64      -0.0951      1.00000
     65      -0.0316      1.00000
     66       0.0322      1.00000
     67       0.1687      1.00000
     68       0.2025      1.00000
     69       0.2824      1.00000
     70       0.3162      1.00000
     71       0.3562      1.00000
     72       0.3565      1.00000
     73       0.4968      1.00000
     74       0.5960      1.00000
     75       0.7106      1.00000
     76       0.7965      1.00000
     77       0.8186      1.00000
     78       0.9134      1.00000
     79       0.9967      1.00000
     80       1.0552      1.00000
     81       4.1615      0.00000
     82       4.2776      0.00000
     83       4.3279      0.00000
     84       4.4884      0.00000
     85       4.6047      0.00000
     86       4.7449      0.00000
     87       4.7788      0.00000
     88       4.8039      0.00000
     89       4.8139      0.00000
     90       4.9419      0.00000
     91       5.4517      0.00000
     92       5.4862      0.00000
     93       6.1280      0.00000
     94       6.3052      0.00000
     95       6.5459      0.00000
     96       6.5600      0.00000
     97       6.7786      0.00000
     98       6.8114      0.00000
     99       7.8525      0.00000
    100       8.0699      0.00000
    101       8.3364      0.00000
    102      10.1990      0.00000
    103      10.2851      0.00000
    104      10.3511      0.00000
    105      10.6719      0.00000
    106      10.7954      0.00000
    107      10.9820      0.00000
    108      11.0736      0.00000
    109      11.1163      0.00000
    110      11.3008      0.00000
    111      11.4332      0.00000
    112      11.5657      0.00000
    113      11.8710      0.00000
    114      11.9178      0.00000
    115      11.9583      0.00000
    116      12.0443      0.00000

 k-point     3 :       0.5000    0.0000    0.0000
  band No.  band energies     occupation 
      1     -19.0729      1.00000
      2     -19.0729      1.00000
      3     -18.9330      1.00000
      4     -18.9330      1.00000
      5     -16.7262      1.00000
      6     -16.7262      1.00000
      7     -16.6962      1.00000
      8     -16.6962      1.00000
      9     -16.5232      1.00000
     10     -16.5232      1.00000
     11     -16.4735      1.00000
     12     -16.4735      1.00000
     13     -16.4706      1.00000
     14     -16.4706      1.00000
     15     -16.4349      1.00000
     16     -16.4349      1.00000
     17     -14.7282      1.00000
     18     -14.7282      1.00000
     19     -14.2615      1.00000
     20     -14.2615      1.00000
     21      -6.6350      1.00000
     22      -6.6350      1.00000
     23      -6.2572      1.00000
     24      -6.2572      1.00000
     25      -4.7268      1.00000
     26      -4.7268      1.00000
     27      -4.4285      1.00000
     28      -4.4285      1.00000
     29      -4.2015      1.00000
     30      -4.2015      1.00000
     31      -4.0780      1.00000
     32      -4.0780      1.00000
     33      -3.6938      1.00000
     34      -3.6938      1.00000
     35      -3.6808      1.00000
     36      -3.6808      1.00000
     37      -2.4206      1.00000
     38      -2.4206      1.00000
     39      -2.3648      1.00000
     40      -2.3648      1.00000
     41      -2.1852      1.00000
     42      -2.1852      1.00000
     43      -2.0018      1.00000
     44      -2.0018      1.00000
     45      -1.6944      1.00000
     46      -1.6944      1.00000
     47      -1.6393      1.00000
     48      -1.6393      1.00000
     49      -1.5544      1.00000
     50      -1.5544      1.00000
     51      -1.4528      1.00000
     52      -1.4528      1.00000
     53      -0.8308      1.00000
     54      -0.8308      1.00000
     55      -0.8162      1.00000
     56      -0.8162      1.00000
     57      -0.7343      1.00000
     58      -0.7343      1.00000
     59      -0.3342      1.00000
     60      -0.3342      1.00000
     61      -0.2832      1.00000
     62      -0.2832      1.00000
     63      -0.2082      1.00000
     64      -0.2082      1.00000
     65       0.0722      1.00000
     66       0.0722      1.00000
     67       0.0875      1.00000
     68       0.0875      1.00000
     69       0.2791      1.00000
     70       0.2791      1.00000
     71       0.3289      1.00000
     72       0.3289      1.00000
     73       0.5481      1.00000
     74       0.5481      1.00000
     75       0.7863      1.00000
     76       0.7863      1.00000
     77       0.8901      1.00000
     78       0.8901      1.00000
     79       0.9052      1.00000
     80       0.9052      1.00000
     81       4.2628      0.00000
     82       4.2628      0.00000
     83       4.2811      0.00000
     84       4.2811      0.00000
     85       4.5623      0.00000
     86       4.5623      0.00000
     87       4.8043      0.00000
     88       4.8043      0.00000
     89       4.8891      0.00000
     90       4.8891      0.00000
     91       5.4118      0.00000
     92       5.4118      0.00000
     93       6.5323      0.00000
     94       6.5323      0.00000
     95       6.6919      0.00000
     96       6.6919      0.00000
     97       6.9431      0.00000
     98       6.9431      0.00000
     99       8.1459      0.00000
    100       8.1459      0.00000
    101       9.2459      0.00000
    102       9.2459      0.00000
    103      10.3406      0.00000
    104      10.3406      0.00000
    105      10.8539      0.00000
    106      10.8539      0.00000
    107      11.1210      0.00000
    108      11.1210      0.00000
    109      11.1822      0.00000
    110      11.1822      0.00000
    111      11.5627      0.00000
    112      11.5627      0.00000
    113      11.8026      0.00000
    114      11.8026      0.00000
    115      12.1661      0.00000
    116      12.1661      0.00000

 k-point     4 :       0.0000    0.3333    0.0000
  band No.  band energies     occupation 
      1     -19.1593      1.00000
      2     -19.0596      1.00000
      3     -18.9801      1.00000
      4     -18.9631      1.00000
      5     -16.7316      1.00000
      6     -16.6584      1.00000
      7     -16.6130      1.00000
      8     -16.5627      1.00000
      9     -16.5281      1.00000
     10     -16.4937      1.00000
     11     -16.4896      1.00000
     12     -16.4760      1.00000
     13     -16.4466      1.00000
     14     -16.4439      1.00000
     15     -16.4422      1.00000
     16     -16.4368      1.00000
     17     -14.7357      1.00000
     18     -14.7340      1.00000
     19     -14.2706      1.00000
     20     -14.2532      1.00000
     21      -6.8967      1.00000
     22      -6.6606      1.00000
     23      -6.6313      1.00000
     24      -6.4505      1.00000
     25      -4.6996      1.00000
     26      -4.6559      1.00000
     27      -4.4677      1.00000
     28      -4.3713      1.00000
     29      -4.3400      1.00000
     30      -4.2362      1.00000
     31      -4.1903      1.00000
     32      -4.0563      1.00000
     33      -4.0039      1.00000
     34      -3.9589      1.00000
     35      -3.9440      1.00000
     36      -3.8200      1.00000
     37      -2.5087      1.00000
     38      -2.3673      1.00000
     39      -2.3240      1.00000
     40      -2.2762      1.00000
     41      -2.2396      1.00000
     42      -2.2260      1.00000
     43      -1.8410      1.00000
     44      -1.7366      1.00000
     45      -1.6992      1.00000
     46      -1.5121      1.00000
     47      -1.5027      1.00000
     48      -1.3688      1.00000
     49      -1.3666      1.00000
     50      -1.3529      1.00000
     51      -1.1494      1.00000
     52      -1.1276      1.00000
     53      -1.0776      1.00000
     54      -0.8856      1.00000
     55      -0.8380      1.00000
     56      -0.6636      1.00000
     57      -0.6233      1.00000
     58      -0.5415      1.00000
     59      -0.4607      1.00000
     60      -0.4235      1.00000
     61      -0.1960      1.00000
     62      -0.1671      1.00000
     63      -0.0762      1.00000
     64       0.0270      1.00000
     65       0.0294      1.00000
     66       0.1471      1.00000
     67       0.1502      1.00000
     68       0.2666      1.00000
     69       0.2977      1.00000
     70       0.3195      1.00000
     71       0.3493      1.00000
     72       0.4072      1.00000
     73       0.5053      1.00000
     74       0.5085      1.00000
     75       0.5982      1.00000
     76       0.7400      1.00000
     77       0.9010      1.00000
     78       0.9062      1.00000
     79       1.2280      1.00000
     80       1.2486      1.00000
     81       4.1679      0.00000
     82       4.2441      0.00000
     83       4.4881      0.00000
     84       4.5844      0.00000
     85       4.7496      0.00000
     86       4.7680      0.00000
     87       4.7878      0.00000
     88       4.7925      0.00000
     89       4.8472      0.00000
     90       4.8875      0.00000
     91       5.5407      0.00000
     92       5.5543      0.00000
     93       5.8489      0.00000
     94       5.9561      0.00000
     95       6.2760      0.00000
     96       6.3978      0.00000
     97       6.6368      0.00000
     98       6.6913      0.00000
     99       7.7414      0.00000
    100       7.9119      0.00000
    101       8.4348      0.00000
    102       9.4940      0.00000
    103      10.5007      0.00000
    104      10.6447      0.00000
    105      10.6670      0.00000
    106      10.7206      0.00000
    107      10.7801      0.00000
    108      10.9581      0.00000
    109      11.2817      0.00000
    110      11.3067      0.00000
    111      11.3478      0.00000
    112      11.4210      0.00000
    113      11.5678      0.00000
    114      11.8530      0.00000
    115      11.9539      0.00000
    116      12.0633      0.00000

 k-point     5 :       0.2500    0.3333    0.0000
  band No.  band energies     occupation 
      1     -19.1195      1.00000
      2     -19.0365      1.00000
      3     -18.9771      1.00000
      4     -18.9541      1.00000
      5     -16.7482      1.00000
      6     -16.6960      1.00000
      7     -16.6563      1.00000
      8     -16.6103      1.00000
      9     -16.5210      1.00000
     10     -16.5044      1.00000
     11     -16.4939      1.00000
     12     -16.4835      1.00000
     13     -16.4582      1.00000
     14     -16.4536      1.00000
     15     -16.4360      1.00000
     16     -16.4299      1.00000
     17     -14.7287      1.00000
     18     -14.7270      1.00000
     19     -14.2685      1.00000
     20     -14.2563      1.00000
     21      -6.7675      1.00000
     22      -6.5920      1.00000
     23      -6.5027      1.00000
     24      -6.3628      1.00000
     25      -4.6791      1.00000
     26      -4.6607      1.00000
     27      -4.4477      1.00000
     28      -4.2953      1.00000
     29      -4.2750      1.00000
     30      -4.2126      1.00000
     31      -4.1673      1.00000
     32      -4.0564      1.00000
     33      -4.0120      1.00000
     34      -3.8629      1.00000
     35      -3.8424      1.00000
     36      -3.7577      1.00000
     37      -2.4777      1.00000
     38      -2.4038      1.00000
     39      -2.2938      1.00000
     40      -2.2926      1.00000
     41      -2.1550      1.00000
     42      -2.1167      1.00000
     43      -1.9353      1.00000
     44      -1.9253      1.00000
     45      -1.8128      1.00000
     46      -1.7052      1.00000
     47      -1.6389      1.00000
     48      -1.5294      1.00000
     49      -1.3937      1.00000
     50      -1.3142      1.00000
     51      -1.2263      1.00000
     52      -1.2168      1.00000
     53      -1.0953      1.00000
     54      -0.9073      1.00000
     55      -0.8252      1.00000
     56      -0.7078      1.00000
     57      -0.7067      1.00000
     58      -0.6534      1.00000
     59      -0.2700      1.00000
     60      -0.2444      1.00000
     61      -0.1818      1.00000
     62      -0.1756      1.00000
     63      -0.1225      1.00000
     64      -0.1210      1.00000
     65       0.0311      1.00000
     66       0.0633      1.00000
     67       0.1347      1.00000
     68       0.1382      1.00000
     69       0.2464      1.00000
     70       0.2631      1.00000
     71       0.2973      1.00000
     72       0.3211      1.00000
     73       0.4116      1.00000
     74       0.5366      1.00000
     75       0.6714      1.00000
     76       0.7533      1.00000
     77       0.8830      1.00000
     78       0.9337      1.00000
     79       1.1147      1.00000
     80       1.1298      1.00000
     81       4.1796      0.00000
     82       4.2470      0.00000
     83       4.3892      0.00000
     84       4.4757      0.00000
     85       4.6185      0.00000
     86       4.7034      0.00000
     87       4.7881      0.00000
     88       4.8094      0.00000
     89       4.8235      0.00000
     90       4.8941      0.00000
     91       5.4664      0.00000
     92       5.4846      0.00000
     93       6.2407      0.00000
     94       6.3198      0.00000
     95       6.5551      0.00000
     96       6.5787      0.00000
     97       6.7560      0.00000
     98       6.7738      0.00000
     99       7.8993      0.00000
    100       8.0086      0.00000
    101       8.7153      0.00000
    102       9.6205      0.00000
    103      10.3480      0.00000
    104      10.4122      0.00000
    105      10.6140      0.00000
    106      10.7640      0.00000
    107      10.9903      0.00000
    108      11.0590      0.00000
    109      11.1771      0.00000
    110      11.2782      0.00000
    111      11.3987      0.00000
    112      11.4496      0.00000
    113      11.7719      0.00000
    114      11.7850      0.00000
    115      11.9230      0.00000
    116      12.0904      0.00000

 k-point     6 :       0.5000    0.3333    0.0000
  band No.  band energies     occupation 
      1     -19.0466      1.00000
      2     -19.0466      1.00000
      3     -18.9587      1.00000
      4     -18.9587      1.00000
      5     -16.7236      1.00000
      6     -16.7236      1.00000
      7     -16.7136      1.00000
      8     -16.7136      1.00000
      9     -16.5136      1.00000
     10     -16.5136      1.00000
     11     -16.4810      1.00000
     12     -16.4810      1.00000
     13     -16.4645      1.00000
     14     -16.4644      1.00000
     15     -16.4339      1.00000
     16     -16.4339      1.00000
     17     -14.7213      1.00000
     18     -14.7213      1.00000
     19     -14.2630      1.00000
     20     -14.2629      1.00000
     21      -6.5835      1.00000
     22      -6.5835      1.00000
     23      -6.3237      1.00000
     24      -6.3237      1.00000
     25      -4.6638      1.00000
     26      -4.6638      1.00000
     27      -4.3255      1.00000
     28      -4.3255      1.00000
     29      -4.1440      1.00000
     30      -4.1440      1.00000
     31      -4.0944      1.00000
     32      -4.0944      1.00000
     33      -3.8538      1.00000
     34      -3.8538      1.00000
     35      -3.7707      1.00000
     36      -3.7707      1.00000
     37      -2.3782      1.00000
     38      -2.3782      1.00000
     39      -2.2909      1.00000
     40      -2.2909      1.00000
     41      -2.1939      1.00000
     42      -2.1939      1.00000
     43      -2.0064      1.00000
     44      -2.0064      1.00000
     45      -1.8615      1.00000
     46      -1.8615      1.00000
     47      -1.7275      1.00000
     48      -1.7275      1.00000
     49      -1.4400      1.00000
     50      -1.4400      1.00000
     51      -1.3040      1.00000
     52      -1.3040      1.00000
     53      -0.9958      1.00000
     54      -0.9958      1.00000
     55      -0.8892      1.00000
     56      -0.8892      1.00000
     57      -0.7057      1.00000
     58      -0.7057      1.00000
     59      -0.3506      1.00000
     60      -0.3506      1.00000
     61      -0.1417      1.00000
     62      -0.1417      1.00000
     63      -0.1310      1.00000
     64      -0.1310      1.00000
     65       0.0300      1.00000
     66       0.0300      1.00000
     67       0.1771      1.00000
     68       0.1771      1.00000
     69       0.2684      1.00000
     70       0.2684      1.00000
     71       0.3355      1.00000
     72       0.3355      1.00000
     73       0.4170      1.00000
     74       0.4170      1.00000
     75       0.7561      1.00000
     76       0.7561      1.00000
     77       0.8152      1.00000
     78       0.8152      1.00000
     79       1.0588      1.00000
     80       1.0588      1.00000
     81       4.2718      0.00000
     82       4.2718      0.00000
     83       4.2867      0.00000
     84       4.2867      0.00000
     85       4.5410      0.00000
     86       4.5410      0.00000
     87       4.8053      0.00000
     88       4.8053      0.00000
     89       4.8740      0.00000
     90       4.8740      0.00000
     91       5.4221      0.00000
     92       5.4221      0.00000
     93       6.5683      0.00000
     94       6.5683      0.00000
     95       6.7122      0.00000
     96       6.7122      0.00000
     97       6.9502      0.00000
     98       6.9502      0.00000
     99       8.1335      0.00000
    100       8.1335      0.00000
    101       9.4359      0.00000
    102       9.4359      0.00000
    103      10.1089      0.00000
    104      10.1089      0.00000
    105      10.6251      0.00000
    106      10.6251      0.00000
    107      11.1955      0.00000
    108      11.1955      0.00000
    109      11.3251      0.00000
    110      11.3251      0.00000
    111      11.4107      0.00000
    112      11.4107      0.00000
    113      11.7193      0.00000
    114      11.7193      0.00000
    115      12.0712      0.00000
    116      12.0712      0.00000

 k-point     7 :       0.0000    0.0000    0.3333
  band No.  band energies     occupation 
      1     -19.1629      1.00000
      2     -19.0623      1.00000
      3     -18.9869      1.00000
      4     -18.9531      1.00000
      5     -16.7099      1.00000
      6     -16.6991      1.00000
      7     -16.5802      1.00000
      8     -16.5274      1.00000
      9     -16.5076      1.00000
     10     -16.5033      1.00000
     11     -16.4836      1.00000
     12     -16.4770      1.00000
     13     -16.4616      1.00000
     14     -16.4612      1.00000
     15     -16.4580      1.00000
     16     -16.4433      1.00000
     17     -14.6349      1.00000
     18     -14.6179      1.00000
     19     -14.4037      1.00000
     20     -14.3699      1.00000
     21      -6.9408      1.00000
     22      -6.8137      1.00000
     23      -6.5156      1.00000
     24      -6.3578      1.00000
     25      -4.7073      1.00000
     26      -4.6705      1.00000
     27      -4.4366      1.00000
     28      -4.4070      1.00000
     29      -4.3569      1.00000
     30      -4.2579      1.00000
     31      -4.2173      1.00000
     32      -4.0978      1.00000
     33      -4.0809      1.00000
     34      -4.0428      1.00000
     35      -3.7184      1.00000
     36      -3.6850      1.00000
     37      -2.2781      1.00000
     38      -2.2759      1.00000
     39      -2.2031      1.00000
     40      -2.0666      1.00000
     41      -2.0526      1.00000
     42      -2.0299      1.00000
     43      -2.0058      1.00000
     44      -1.9029      1.00000
     45      -1.7072      1.00000
     46      -1.6616      1.00000
     47      -1.5532      1.00000
     48      -1.4106      1.00000
     49      -1.3615      1.00000
     50      -1.2940      1.00000
     51      -1.1478      1.00000
     52      -1.1318      1.00000
     53      -1.0192      1.00000
     54      -1.0129      1.00000
     55      -1.0014      1.00000
     56      -0.7457      1.00000
     57      -0.7262      1.00000
     58      -0.7138      1.00000
     59      -0.5943      1.00000
     60      -0.4036      1.00000
     61      -0.3427      1.00000
     62      -0.1594      1.00000
     63      -0.1025      1.00000
     64       0.0095      1.00000
     65       0.0160      1.00000
     66       0.0350      1.00000
     67       0.1019      1.00000
     68       0.1479      1.00000
     69       0.2428      1.00000
     70       0.2927      1.00000
     71       0.4743      1.00000
     72       0.5419      1.00000
     73       0.5723      1.00000
     74       0.6807      1.00000
     75       0.7503      1.00000
     76       0.8262      1.00000
     77       0.8533      1.00000
     78       0.8765      1.00000
     79       1.0024      1.00000
     80       1.1836      1.00000
     81       4.1693      0.00000
     82       4.2266      0.00000
     83       4.5464      0.00000
     84       4.6045      0.00000
     85       4.8656      0.00000
     86       4.9146      0.00000
     87       4.9536      0.00000
     88       4.9754      0.00000
     89       5.0009      0.00000
     90       5.1289      0.00000
     91       5.3032      0.00000
     92       5.3570      0.00000
     93       5.7672      0.00000
     94       5.8769      0.00000
     95       6.3265      0.00000
     96       6.4174      0.00000
     97       6.6364      0.00000
     98       6.9664      0.00000
     99       7.2272      0.00000
    100       7.6526      0.00000
    101       8.5085      0.00000
    102       9.5384      0.00000
    103      10.5598      0.00000
    104      10.6303      0.00000
    105      10.6752      0.00000
    106      10.6761      0.00000
    107      11.0824      0.00000
    108      11.1088      0.00000
    109      11.2777      0.00000
    110      11.2780      0.00000
    111      11.3730      0.00000
    112      11.4418      0.00000
    113      11.6979      0.00000
    114      11.7274      0.00000
    115      12.0890      0.00000
    116      12.2313      0.00000

 k-point     8 :       0.2500    0.0000    0.3333
  band No.  band energies     occupation 
      1     -19.1210      1.00000
      2     -19.0283      1.00000
      3     -18.9935      1.00000
      4     -18.9492      1.00000
      5     -16.7278      1.00000
      6     -16.7156      1.00000
      7     -16.6276      1.00000
      8     -16.5651      1.00000
      9     -16.5315      1.00000
     10     -16.5073      1.00000
     11     -16.5024      1.00000
     12     -16.4828      1.00000
     13     -16.4697      1.00000
     14     -16.4662      1.00000
     15     -16.4460      1.00000
     16     -16.4373      1.00000
     17     -14.6277      1.00000
     18     -14.6153      1.00000
     19     -14.3973      1.00000
     20     -14.3735      1.00000
     21      -6.7940      1.00000
     22      -6.6501      1.00000
     23      -6.4818      1.00000
     24      -6.2966      1.00000
     25      -4.6635      1.00000
     26      -4.6300      1.00000
     27      -4.5032      1.00000
     28      -4.3132      1.00000
     29      -4.2922      1.00000
     30      -4.2603      1.00000
     31      -4.2174      1.00000
     32      -4.1097      1.00000
     33      -3.9905      1.00000
     34      -3.9892      1.00000
     35      -3.6433      1.00000
     36      -3.6257      1.00000
     37      -2.3140      1.00000
     38      -2.2709      1.00000
     39      -2.1762      1.00000
     40      -2.0973      1.00000
     41      -2.0897      1.00000
     42      -1.9656      1.00000
     43      -1.9563      1.00000
     44      -1.8358      1.00000
     45      -1.7991      1.00000
     46      -1.6796      1.00000
     47      -1.5290      1.00000
     48      -1.5123      1.00000
     49      -1.4717      1.00000
     50      -1.4245      1.00000
     51      -1.2821      1.00000
     52      -1.2373      1.00000
     53      -1.1328      1.00000
     54      -1.0765      1.00000
     55      -1.0565      1.00000
     56      -0.9288      1.00000
     57      -0.7102      1.00000
     58      -0.6782      1.00000
     59      -0.5433      1.00000
     60      -0.3516      1.00000
     61      -0.3507      1.00000
     62      -0.1807      1.00000
     63      -0.1546      1.00000
     64      -0.0870      1.00000
     65      -0.0520      1.00000
     66       0.0010      1.00000
     67       0.1015      1.00000
     68       0.1094      1.00000
     69       0.3160      1.00000
     70       0.3596      1.00000
     71       0.4625      1.00000
     72       0.5174      1.00000
     73       0.5240      1.00000
     74       0.5564      1.00000
     75       0.6506      1.00000
     76       0.7127      1.00000
     77       0.8603      1.00000
     78       0.8718      1.00000
     79       0.9481      1.00000
     80       1.0640      1.00000
     81       4.1896      0.00000
     82       4.2429      0.00000
     83       4.4603      0.00000
     84       4.5007      0.00000
     85       4.7826      0.00000
     86       4.8608      0.00000
     87       4.8931      0.00000
     88       4.9500      0.00000
     89       5.0253      0.00000
     90       5.1248      0.00000
     91       5.2149      0.00000
     92       5.2550      0.00000
     93       6.1775      0.00000
     94       6.2624      0.00000
     95       6.5637      0.00000
     96       6.5789      0.00000
     97       6.8611      0.00000
     98       7.0004      0.00000
     99       7.4283      0.00000
    100       7.7004      0.00000
    101       8.7973      0.00000
    102       9.7338      0.00000
    103      10.3587      0.00000
    104      10.5315      0.00000
    105      10.7195      0.00000
    106      10.8162      0.00000
    107      10.9502      0.00000
    108      11.1216      0.00000
    109      11.2927      0.00000
    110      11.3164      0.00000
    111      11.3815      0.00000
    112      11.3896      0.00000
    113      11.7061      0.00000
    114      11.8690      0.00000
    115      12.1092      0.00000
    116      12.1780      0.00000

 k-point     9 :       0.5000    0.0000    0.3333
  band No.  band energies     occupation 
      1     -19.0392      1.00000
      2     -19.0392      1.00000
      3     -18.9694      1.00000
      4     -18.9694      1.00000
      5     -16.7077      1.00000
      6     -16.7077      1.00000
      7     -16.6934      1.00000
      8     -16.6934      1.00000
      9     -16.5217      1.00000
     10     -16.5217      1.00000
     11     -16.4946      1.00000
     12     -16.4946      1.00000
     13     -16.4609      1.00000
     14     -16.4609      1.00000
     15     -16.4448      1.00000
     16     -16.4448      1.00000
     17     -14.6168      1.00000
     18     -14.6168      1.00000
     19     -14.3840      1.00000
     20     -14.3840      1.00000
     21      -6.5507      1.00000
     22      -6.5507      1.00000
     23      -6.3649      1.00000
     24      -6.3649      1.00000
     25      -4.6026      1.00000
     26      -4.6026      1.00000
     27      -4.4418      1.00000
     28      -4.4418      1.00000
     29      -4.1822      1.00000
     30      -4.1822      1.00000
     31      -4.1170      1.00000
     32      -4.1170      1.00000
     33      -3.7672      1.00000
     34      -3.7672      1.00000
     35      -3.7512      1.00000
     36      -3.7512      1.00000
     37      -2.2659      1.00000
     38      -2.2659      1.00000
     39      -2.2187      1.00000
     40      -2.2187      1.00000
     41      -2.0416      1.00000
     42      -2.0416      1.00000
     43      -1.8390      1.00000
     44      -1.8390      1.00000
     45      -1.8212      1.00000
     46      -1.8212      1.00000
     47      -1.6088      1.00000
     48      -1.6088      1.00000
     49      -1.4742      1.00000
     50      -1.4742      1.00000
     51      -1.3026      1.00000
     52      -1.3026      1.00000
     53      -1.1583      1.00000
     54      -1.1583      1.00000
     55      -0.9869      1.00000
     56      -0.9869      1.00000
     57      -0.9610      1.00000
     58      -0.9610      1.00000
     59      -0.5658      1.00000
     60      -0.5658      1.00000
     61      -0.3093      1.00000
     62      -0.3092      1.00000
     63      -0.1268      1.00000
     64      -0.1268      1.00000
     65       0.0892      1.00000
     66       0.0892      1.00000
     67       0.2071      1.00000
     68       0.2071      1.00000
     69       0.3025      1.00000
     70       0.3025      1.00000
     71       0.3503      1.00000
     72       0.3503      1.00000
     73       0.6137      1.00000
     74       0.6137      1.00000
     75       0.7383      1.00000
     76       0.7383      1.00000
     77       0.7579      1.00000
     78       0.7579      1.00000
     79       0.8932      1.00000
     80       0.8932      1.00000
     81       4.3060      0.00000
     82       4.3060      0.00000
     83       4.3259      0.00000
     84       4.3259      0.00000
     85       4.7007      0.00000
     86       4.7007      0.00000
     87       4.9308      0.00000
     88       4.9308      0.00000
     89       5.0914      0.00000
     90       5.0914      0.00000
     91       5.1586      0.00000
     92       5.1586      0.00000
     93       6.5742      0.00000
     94       6.5742      0.00000
     95       6.6709      0.00000
     96       6.6709      0.00000
     97       7.1019      0.00000
     98       7.1019      0.00000
     99       7.7391      0.00000
    100       7.7391      0.00000
    101       9.5640      0.00000
    102       9.5640      0.00000
    103      10.1726      0.00000
    104      10.1726      0.00000
    105      10.8628      0.00000
    106      10.8628      0.00000
    107      11.0096      0.00000
    108      11.0096      0.00000
    109      11.2763      0.00000
    110      11.2763      0.00000
    111      11.3985      0.00000
    112      11.3985      0.00000
    113      11.9684      0.00000
    114      11.9684      0.00000
    115      12.0587      0.00000
    116      12.0587      0.00000

 k-point    10 :       0.0000    0.3333    0.3333
  band No.  band energies     occupation 
      1     -19.1316      1.00000
      2     -19.0783      1.00000
      3     -18.9841      1.00000
      4     -18.9682      1.00000
      5     -16.7259      1.00000
      6     -16.6918      1.00000
      7     -16.6004      1.00000
      8     -16.5704      1.00000
      9     -16.5180      1.00000
     10     -16.4982      1.00000
     11     -16.4809      1.00000
     12     -16.4716      1.00000
     13     -16.4501      1.00000
     14     -16.4465      1.00000
     15     -16.4439      1.00000
     16     -16.4266      1.00000
     17     -14.6275      1.00000
     18     -14.6188      1.00000
     19     -14.3933      1.00000
     20     -14.3763      1.00000
     21      -6.8462      1.00000
     22      -6.7232      1.00000
     23      -6.6019      1.00000
     24      -6.4989      1.00000
     25      -4.6922      1.00000
     26      -4.6621      1.00000
     27      -4.4082      1.00000
     28      -4.3214      1.00000
     29      -4.2924      1.00000
     30      -4.2128      1.00000
     31      -4.1754      1.00000
     32      -4.1731      1.00000
     33      -4.0030      1.00000
     34      -3.9728      1.00000
     35      -3.9112      1.00000
     36      -3.8412      1.00000
     37      -2.3271      1.00000
     38      -2.2192      1.00000
     39      -2.1903      1.00000
     40      -2.1431      1.00000
     41      -2.1008      1.00000
     42      -2.0331      1.00000
     43      -1.8533      1.00000
     44      -1.7442      1.00000
     45      -1.7420      1.00000
     46      -1.6039      1.00000
     47      -1.5295      1.00000
     48      -1.4967      1.00000
     49      -1.3804      1.00000
     50      -1.3525      1.00000
     51      -1.3315      1.00000
     52      -1.2188      1.00000
     53      -1.1560      1.00000
     54      -0.9215      1.00000
     55      -0.8210      1.00000
     56      -0.7554      1.00000
     57      -0.7077      1.00000
     58      -0.7023      1.00000
     59      -0.4715      1.00000
     60      -0.4709      1.00000
     61      -0.3600      1.00000
     62      -0.2737      1.00000
     63      -0.1137      1.00000
     64      -0.0830      1.00000
     65       0.0070      1.00000
     66       0.0345      1.00000
     67       0.2078      1.00000
     68       0.2536      1.00000
     69       0.2549      1.00000
     70       0.3050      1.00000
     71       0.4840      1.00000
     72       0.5609      1.00000
     73       0.5782      1.00000
     74       0.6126      1.00000
     75       0.7012      1.00000
     76       0.7368      1.00000
     77       0.8504      1.00000
     78       0.8579      1.00000
     79       1.1532      1.00000
     80       1.2250      1.00000
     81       4.1952      0.00000
     82       4.2336      0.00000
     83       4.5421      0.00000
     84       4.5859      0.00000
     85       4.8653      0.00000
     86       4.9027      0.00000
     87       4.9307      0.00000
     88       4.9761      0.00000
     89       5.0108      0.00000
     90       5.0808      0.00000
     91       5.3262      0.00000
     92       5.3524      0.00000
     93       5.8755      0.00000
     94       5.9267      0.00000
     95       6.3070      0.00000
     96       6.3608      0.00000
     97       6.7197      0.00000
     98       6.8751      0.00000
     99       7.3433      0.00000
    100       7.5482      0.00000
    101       8.8768      0.00000
    102       9.5026      0.00000
    103      10.3648      0.00000
    104      10.4962      0.00000
    105      10.6902      0.00000
    106      10.7167      0.00000
    107      11.0371      0.00000
    108      11.1361      0.00000
    109      11.2836      0.00000
    110      11.3279      0.00000
    111      11.3490      0.00000
    112      11.4247      0.00000
    113      11.4474      0.00000
    114      11.7150      0.00000
    115      11.9568      0.00000
    116      12.1085      0.00000

 k-point    11 :       0.2500    0.3333    0.3333
  band No.  band energies     occupation 
      1     -19.0933      1.00000
      2     -19.0456      1.00000
      3     -18.9842      1.00000
      4     -18.9640      1.00000
      5     -16.7456      1.00000
      6     -16.7199      1.00000
      7     -16.6453      1.00000
      8     -16.6208      1.00000
      9     -16.5168      1.00000
     10     -16.4998      1.00000
     11     -16.4895      1.00000
     12     -16.4781      1.00000
     13     -16.4618      1.00000
     14     -16.4592      1.00000
     15     -16.4335      1.00000
     16     -16.4224      1.00000
     17     -14.6207      1.00000
     18     -14.6143      1.00000
     19     -14.3900      1.00000
     20     -14.3780      1.00000
     21      -6.7168      1.00000
     22      -6.5929      1.00000
     23      -6.5352      1.00000
     24      -6.4229      1.00000
     25      -4.6417      1.00000
     26      -4.6343      1.00000
     27      -4.3748      1.00000
     28      -4.3041      1.00000
     29      -4.2456      1.00000
     30      -4.2331      1.00000
     31      -4.1898      1.00000
     32      -4.0874      1.00000
     33      -4.0070      1.00000
     34      -3.9132      1.00000
     35      -3.7661      1.00000
     36      -3.7549      1.00000
     37      -2.3251      1.00000
     38      -2.2392      1.00000
     39      -2.1925      1.00000
     40      -2.1403      1.00000
     41      -2.0557      1.00000
     42      -2.0152      1.00000
     43      -1.9815      1.00000
     44      -1.8568      1.00000
     45      -1.7990      1.00000
     46      -1.7105      1.00000
     47      -1.5662      1.00000
     48      -1.5523      1.00000
     49      -1.4424      1.00000
     50      -1.3652      1.00000
     51      -1.3435      1.00000
     52      -1.3181      1.00000
     53      -1.2010      1.00000
     54      -1.1775      1.00000
     55      -0.9302      1.00000
     56      -0.8596      1.00000
     57      -0.7101      1.00000
     58      -0.6577      1.00000
     59      -0.5364      1.00000
     60      -0.4473      1.00000
     61      -0.2332      1.00000
     62      -0.1661      1.00000
     63      -0.1410      1.00000
     64      -0.0324      1.00000
     65       0.0186      1.00000
     66       0.0508      1.00000
     67       0.0801      1.00000
     68       0.1813      1.00000
     69       0.2600      1.00000
     70       0.3352      1.00000
     71       0.3807      1.00000
     72       0.4501      1.00000
     73       0.5508      1.00000
     74       0.5576      1.00000
     75       0.6417      1.00000
     76       0.7008      1.00000
     77       0.8231      1.00000
     78       0.8979      1.00000
     79       1.0560      1.00000
     80       1.0949      1.00000
     81       4.2107      0.00000
     82       4.2469      0.00000
     83       4.4510      0.00000
     84       4.4916      0.00000
     85       4.7880      0.00000
     86       4.8212      0.00000
     87       4.9073      0.00000
     88       4.9281      0.00000
     89       5.0285      0.00000
     90       5.0762      0.00000
     91       5.2421      0.00000
     92       5.2628      0.00000
     93       6.2643      0.00000
     94       6.3022      0.00000
     95       6.5672      0.00000
     96       6.5844      0.00000
     97       6.8688      0.00000
     98       6.9445      0.00000
     99       7.4896      0.00000
    100       7.6238      0.00000
    101       9.1199      0.00000
    102       9.6890      0.00000
    103      10.2861      0.00000
    104      10.4338      0.00000
    105      10.6484      0.00000
    106      10.7726      0.00000
    107      10.9442      0.00000
    108      11.0200      0.00000
    109      11.2227      0.00000
    110      11.3125      0.00000
    111      11.4048      0.00000
    112      11.4772      0.00000
    113      11.6199      0.00000
    114      11.8416      0.00000
    115      12.0237      0.00000
    116      12.0913      0.00000

 k-point    12 :       0.5000    0.3333    0.3333
  band No.  band energies     occupation 
      1     -19.0246      1.00000
      2     -19.0246      1.00000
      3     -18.9806      1.00000
      4     -18.9806      1.00000
      5     -16.7293      1.00000
      6     -16.7293      1.00000
      7     -16.7173      1.00000
      8     -16.7173      1.00000
      9     -16.5088      1.00000
     10     -16.5088      1.00000
     11     -16.4845      1.00000
     12     -16.4845      1.00000
     13     -16.4571      1.00000
     14     -16.4571      1.00000
     15     -16.4336      1.00000
     16     -16.4336      1.00000
     17     -14.6121      1.00000
     18     -14.6121      1.00000
     19     -14.3833      1.00000
     20     -14.3833      1.00000
     21      -6.5313      1.00000
     22      -6.5313      1.00000
     23      -6.4046      1.00000
     24      -6.4046      1.00000
     25      -4.5650      1.00000
     26      -4.5650      1.00000
     27      -4.3979      1.00000
     28      -4.3979      1.00000
     29      -4.1205      1.00000
     30      -4.1205      1.00000
     31      -4.0970      1.00000
     32      -4.0970      1.00000
     33      -3.8465      1.00000
     34      -3.8465      1.00000
     35      -3.7441      1.00000
     36      -3.7441      1.00000
     37      -2.2921      1.00000
     38      -2.2921      1.00000
     39      -2.2295      1.00000
     40      -2.2295      1.00000
     41      -2.0567      1.00000
     42      -2.0567      1.00000
     43      -1.9200      1.00000
     44      -1.9200      1.00000
     45      -1.8329      1.00000
     46      -1.8329      1.00000
     47      -1.6510      1.00000
     48      -1.6510      1.00000
     49      -1.5267      1.00000
     50      -1.5267      1.00000
     51      -1.3574      1.00000
     52      -1.3574      1.00000
     53      -1.2521      1.00000
     54      -1.2521      1.00000
     55      -1.0153      1.00000
     56      -1.0153      1.00000
     57      -0.7229      1.00000
     58      -0.7229      1.00000
     59      -0.6092      1.00000
     60      -0.6092      1.00000
     61      -0.2080      1.00000
     62      -0.2080      1.00000
     63      -0.0593      1.00000
     64      -0.0593      1.00000
     65       0.1330      1.00000
     66       0.1330      1.00000
     67       0.2197      1.00000
     68       0.2197      1.00000
     69       0.3113      1.00000
     70       0.3113      1.00000
     71       0.3584      1.00000
     72       0.3584      1.00000
     73       0.5184      1.00000
     74       0.5185      1.00000
     75       0.6414      1.00000
     76       0.6414      1.00000
     77       0.8253      1.00000
     78       0.8253      1.00000
     79       0.9458      1.00000
     80       0.9458      1.00000
     81       4.3014      0.00000
     82       4.3014      0.00000
     83       4.3351      0.00000
     84       4.3351      0.00000
     85       4.6922      0.00000
     86       4.6922      0.00000
     87       4.9211      0.00000
     88       4.9211      0.00000
     89       5.0483      0.00000
     90       5.0483      0.00000
     91       5.1880      0.00000
     92       5.1880      0.00000
     93       6.6114      0.00000
     94       6.6114      0.00000
     95       6.6950      0.00000
     96       6.6950      0.00000
     97       7.0953      0.00000
     98       7.0953      0.00000
     99       7.7248      0.00000
    100       7.7248      0.00000
    101       9.7409      0.00000
    102       9.7409      0.00000
    103      10.1173      0.00000
    104      10.1173      0.00000
    105      10.6549      0.00000
    106      10.6549      0.00000
    107      10.9153      0.00000
    108      10.9153      0.00000
    109      11.3468      0.00000
    110      11.3468      0.00000
    111      11.4446      0.00000
    112      11.4446      0.00000
    113      11.9652      0.00000
    114      11.9652      0.00000
    115      12.1152      0.00000
    116      12.1153      0.00000


--------------------------------------------------------------------------------------------------------


 soft charge-density along one line, spin component           1
         0         1         2         3         4         5         6         7         8         9
 total charge-density along one line
 
 soft charge-density along one line, spin component           2
         0         1         2         3         4         5         6         7         8         9
 total charge-density along one line
 
 pseudopotential strength for first ion, spin component:           1
  1.175   5.254   0.000   0.000   0.000
  5.254  22.465   0.000   0.000   0.000
  0.000   0.000  -0.344  -0.000   0.000
  0.000   0.000  -0.000  -0.345  -0.001
  0.000   0.000   0.000  -0.001  -0.344
 pseudopotential strength for first ion, spin component:           2
  1.175   5.254   0.000   0.000   0.000
  5.254  22.465   0.000   0.000   0.000
  0.000   0.000  -0.344  -0.000   0.000
  0.000   0.000  -0.000  -0.345  -0.001
  0.000   0.000   0.000  -0.001  -0.344
 total augmentation occupancy for first ion, spin component:           1
  0.807  -0.022   0.000   0.000   0.000
 -0.022   0.001   0.000   0.000   0.000
  0.000   0.000   0.091  -0.015  -0.008
  0.000   0.000  -0.015   0.062  -0.006
  0.000   0.000  -0.008  -0.006   0.073
 total augmentation occupancy for first ion, spin component:           2
 -0.000  -0.000   0.000   0.000   0.000
 -0.000   0.000   0.000   0.000   0.000
  0.000   0.000  -0.000  -0.000   0.000
  0.000   0.000  -0.000  -0.000   0.000
  0.000   0.000   0.000   0.000  -0.000


------------------------ aborting loop because EDIFF is reached ----------------------------------------





 total charge

# of ion       s       p       d       tot
------------------------------------------
    1        0.078   0.163   0.000   0.241
    2        0.078   0.163   0.000   0.241
    3        0.078   0.163   0.000   0.241
    4        0.078   0.163   0.000   0.241
    5        0.546   1.012   2.655   4.213
    6        0.546   1.012   2.655   4.213
    7        0.546   1.012   2.655   4.213
    8        0.546   1.012   2.655   4.213
    9        0.907   1.501   0.000   2.408
   10        0.907   1.501   0.000   2.408
   11        0.907   1.501   0.000   2.408
   12        0.907   1.501   0.000   2.408
   13        1.561   3.616   0.000   5.177
   14        1.561   3.616   0.000   5.177
   15        1.561   3.616   0.000   5.177
   16        1.561   3.616   0.000   5.177
   17        1.561   3.616   0.000   5.177
   18        1.561   3.616   0.000   5.177
   19        1.561   3.616   0.000   5.177
   20        1.561   3.616   0.000   5.177
   21        1.574   3.443   0.000   5.016
   22        1.574   3.443   0.000   5.016
   23        1.574   3.443   0.000   5.016
   24        1.574   3.443   0.000   5.016
   25        1.560   3.603   0.000   5.163
   26        1.560   3.603   0.000   5.163
   27        1.560   3.603   0.000   5.163
   28        1.560   3.603   0.000   5.163
   29        1.564   3.598   0.000   5.162
   30        1.564   3.598   0.000   5.162
   31        1.564   3.598   0.000   5.162
   32        1.564   3.598   0.000   5.162
--------------------------------------------------
tot         37.404  82.204  10.618 130.227



 magnetization (x)

# of ion       s       p       d       tot
------------------------------------------
    1       -0.000  -0.000   0.000  -0.000
    2       -0.000  -0.000   0.000  -0.000
    3       -0.000  -0.000   0.000  -0.000
    4       -0.000  -0.000   0.000  -0.000
    5        0.000  -0.000   0.000   0.000
    6        0.000  -0.000   0.000   0.000
    7        0.000  -0.000   0.000   0.000
    8        0.000  -0.000   0.000   0.000
    9       -0.000  -0.000   0.000  -0.000
   10       -0.000  -0.000   0.000  -0.000
   11       -0.000  -0.000   0.000  -0.000
   12       -0.000  -0.000   0.000  -0.000
   13       -0.000   0.000   0.000   0.000
   14       -0.000   0.000   0.000   0.000
   15       -0.000   0.000   0.000   0.000
   16       -0.000   0.000   0.000   0.000
   17       -0.000   0.000   0.000   0.000
   18       -0.000   0.000   0.000   0.000
   19       -0.000   0.000   0.000   0.000
   20       -0.000   0.000   0.000   0.000
   21        0.000   0.000   0.000   0.000
   22        0.000   0.000   0.000   0.000
   23        0.000   0.000   0.000   0.000
   24        0.000   0.000   0.000   0.000
   25       -0.000   0.000   0.000  -0.000
   26       -0.000   0.000   0.000  -0.000
   27       -0.000   0.000   0.000  -0.000
   28       -0.000   0.000   0.000  -0.000
   29       -0.000   0.000   0.000  -0.000
   30       -0.000   0.000   0.000  -0.000
   31       -0.000   0.000   0.000  -0.000
   32       -0.000   0.000   0.000  -0.000
--------------------------------------------------
tot         -0.000   0.000   0.000   0.000
 
    CHARGE:  cpu time      0.1132: real time      0.1137
    FORLOC:  cpu time      0.0026: real time      0.0026
    FORNL :  cpu time      0.5336: real time      0.5351
    STRESS:  cpu time      0.6757: real time      0.6782
    FORCOR:  cpu time      0.0326: real time      0.0327
    FORHAR:  cpu time      0.0059: real time      0.0059
    MIXING:  cpu time      0.0007: real time      0.0007
    OFIELD:  cpu time      0.0001: real time      0.0001

 ---------------------------------------------------------------------------------------------

         DFTD3 V3.0 Rev 1        
 Edisp (eV)   -4.78696

 E6    (eV) :    -2.3247
 E8    (eV) :    -2.4622
 % E8        : 51.44
    FORVDW:  cpu time      0.2402: real time      0.2421

  FORCE on cell =-STRESS in cart. coord.  units (eV):
  Direction    XX          YY          ZZ          XY          YZ          ZX
  --------------------------------------------------------------------------------------
  Alpha Z   419.65194   419.65194   419.65194
  Ewald   -2319.64245 -2300.84926 -2392.00627     0.00000    -0.00004    -0.00000
  Hartree  1070.54593  1054.72105  1014.10395    -0.00000     0.00000    -0.00000
  E(xc)    -752.26667  -752.45822  -756.78361    -0.00000     0.00000    -0.00000
  Local   -1239.82322 -1237.20661 -1117.49309    -0.00000     0.00004     0.00000
  n-local  -283.80115  -286.51473  -294.03987     0.00096     0.00562     0.00124
  augment   118.61351   118.71488   122.43398    -0.00000    -0.00000     0.00000
  Kinetic  2991.00943  2988.42588  3008.11337    -0.09286    -0.03969     0.01862
  Fock        0.00000     0.00000     0.00000     0.00000     0.00000     0.00000
  vdW        -4.28705    -4.48632    -3.98964    -0.00000    -0.00000    -0.00000
  -------------------------------------------------------------------------------------
  Total       0.00028    -0.00140    -0.00924     0.00000     0.00000     0.00000
  in kB       0.00130    -0.00648    -0.04284     0.00000     0.00000     0.00000
  external pressure =       -0.02 kB  Pullay stress =        0.00 kB


 VOLUME and BASIS-vectors are now :
 -----------------------------------------------------------------------------
  energy-cutoff  :      600.00
  volume of cell :      345.54
      direct lattice vectors                 reciprocal lattice vectors
     6.430432064  0.000000000  0.000000000     0.155510546 -0.000000000  0.000000000
     0.000000000  7.266475885  0.000000000    -0.000000000  0.137618292  0.000000000
     0.000000000  0.000000000  7.394954414     0.000000000  0.000000000  0.135227338

  length of vectors
     6.430432064  7.266475885  7.394954414     0.155510546  0.137618292  0.135227338


 FORCES acting on ions
    electron-ion (+dipol)            ewald-force                    non-local-force                 convergence-correction
 -----------------------------------------------------------------------------------------------
   0.273E-06 0.173E-06 0.118E-06   -.169E-05 -.584E-06 -.275E-05   -.688E-23 0.520E-23 -.988E-24   0.380E-11 -.523E-10 0.759E-10
   0.190E-06 0.265E-06 -.185E-06   -.186E-05 -.519E-05 0.199E-05   -.104E-23 -.195E-23 -.187E-24   -.405E-11 0.486E-10 -.747E-10
   -.159E-06 0.315E-06 -.167E-06   0.157E-05 -.564E-05 0.183E-05   0.248E-23 0.109E-23 -.272E-23   0.405E-11 0.484E-10 -.747E-10
   -.242E-06 0.223E-06 0.999E-07   0.141E-05 -.103E-05 -.259E-05   0.712E-23 0.265E-24 -.289E-23   -.379E-11 -.526E-10 0.759E-10
   -.742E-06 0.432E+01 -.514E+01   0.672E-05 -.449E+01 0.615E+01   0.352E-19 0.161E+00 -.104E+01   -.118E-11 0.732E-06 -.286E-05
   0.242E-07 -.432E+01 0.514E+01   -.222E-06 0.449E+01 -.615E+01   -.318E-19 -.161E+00 0.104E+01   0.354E-11 -.732E-06 0.286E-05
   0.242E-07 0.432E+01 0.514E+01   -.222E-06 -.449E+01 -.615E+01   -.164E-20 0.161E+00 0.104E+01   0.353E-11 0.732E-06 0.286E-05
   -.742E-06 -.432E+01 -.514E+01   0.672E-05 0.449E+01 0.615E+01   0.543E-20 -.161E+00 -.104E+01   -.115E-11 -.732E-06 -.286E-05
   -.885E-06 0.440E+01 0.688E+01   0.833E-05 -.425E+01 -.690E+01   -.110E-19 -.119E+00 0.710E-02   0.886E-12 0.201E-05 0.288E-07
   -.538E-07 -.440E+01 -.688E+01   0.491E-06 0.425E+01 0.690E+01   -.432E-18 0.119E+00 -.710E-02   -.451E-11 -.201E-05 -.280E-07
   -.538E-07 0.440E+01 -.688E+01   0.491E-06 -.425E+01 0.690E+01   0.376E-18 -.119E+00 -.710E-02   -.448E-11 0.201E-05 -.290E-07
   -.885E-06 -.440E+01 0.688E+01   0.833E-05 0.425E+01 -.690E+01   -.361E-18 0.119E+00 0.710E-02   0.861E-12 -.201E-05 0.282E-07
   -.600E+02 0.953E+02 -.172E+01   0.785E+02 -.119E+03 0.215E+01   -.185E+02 0.234E+02 -.440E+00   -.130E-04 0.184E-04 0.246E-05
   0.600E+02 -.953E+02 -.172E+01   -.785E+02 0.119E+03 0.215E+01   0.185E+02 -.234E+02 -.440E+00   0.130E-04 -.184E-04 0.246E-05
   0.600E+02 0.953E+02 0.172E+01   -.785E+02 -.119E+03 -.215E+01   0.185E+02 0.234E+02 0.440E+00   0.130E-04 0.184E-04 -.246E-05
   -.600E+02 -.953E+02 0.172E+01   0.785E+02 0.119E+03 -.215E+01   -.185E+02 -.234E+02 0.440E+00   -.130E-04 -.184E-04 -.246E-05
   0.600E+02 -.953E+02 0.172E+01   -.785E+02 0.119E+03 -.215E+01   0.185E+02 -.234E+02 0.440E+00   0.130E-04 -.184E-04 -.246E-05
   0.600E+02 0.953E+02 -.172E+01   -.785E+02 -.119E+03 0.215E+01   0.185E+02 0.234E+02 -.440E+00   0.130E-04 0.184E-04 0.246E-05
   -.600E+02 -.953E+02 -.172E+01   0.785E+02 0.119E+03 0.215E+01   -.185E+02 -.234E+02 -.440E+00   -.130E-04 -.184E-04 0.246E-05
   -.600E+02 0.953E+02 0.172E+01   0.785E+02 -.119E+03 -.215E+01   -.185E+02 0.234E+02 0.440E+00   -.130E-04 0.184E-04 -.246E-05
   -.350E-06 0.491E+02 0.156E+02   0.318E-05 -.545E+02 -.245E+02   -.630E-20 0.545E+01 0.893E+01   -.321E-11 0.136E-04 0.127E-04
   0.393E-07 -.491E+02 -.156E+02   -.360E-06 0.545E+02 0.245E+02   0.190E-19 -.545E+01 -.893E+01   0.692E-11 -.137E-04 -.127E-04
   0.393E-07 0.491E+02 -.156E+02   -.360E-06 -.545E+02 0.245E+02   -.669E-19 0.545E+01 -.893E+01   0.696E-11 0.137E-04 -.127E-04
   -.350E-06 -.491E+02 0.156E+02   0.318E-05 0.545E+02 -.245E+02   0.982E-19 -.545E+01 0.893E+01   -.331E-11 -.136E-04 0.127E-04
   -.220E-06 -.279E+02 -.108E+03   0.199E-05 0.396E+02 0.135E+03   -.454E-19 -.117E+02 -.275E+02   -.598E-11 -.119E-04 -.263E-04
   0.346E-07 0.279E+02 0.108E+03   -.324E-06 -.396E+02 -.135E+03   -.429E-19 0.117E+02 0.275E+02   0.421E-11 0.119E-04 0.263E-04
   0.346E-07 -.279E+02 0.108E+03   -.324E-06 0.396E+02 -.135E+03   0.752E-19 -.117E+02 0.275E+02   0.431E-11 -.119E-04 0.263E-04
   -.220E-06 0.279E+02 -.108E+03   0.199E-05 -.396E+02 0.135E+03   0.309E-19 0.117E+02 -.275E+02   -.604E-11 0.119E-04 -.263E-04
   0.333E-07 -.184E+02 -.109E+03   -.313E-06 0.247E+02 0.138E+03   -.556E-19 -.627E+01 -.283E+02   0.393E-11 -.712E-05 -.185E-04
   -.177E-06 0.184E+02 0.109E+03   0.162E-05 -.247E+02 -.138E+03   -.189E-18 0.627E+01 0.283E+02   -.458E-11 0.712E-05 0.185E-04
   -.177E-06 -.184E+02 0.109E+03   0.162E-05 0.247E+02 -.138E+03   0.163E-18 -.627E+01 0.283E+02   -.455E-11 -.712E-05 0.185E-04
   0.333E-07 0.184E+02 -.109E+03   -.313E-06 -.247E+02 0.138E+03   0.220E-19 0.627E+01 -.283E+02   0.394E-11 0.712E-05 -.185E-04
 -----------------------------------------------------------------------------------------------
   -.157E-03 0.130E-03 0.857E-04   0.112E-12 0.746E-13 0.000E+00   0.264E-20 0.142E-13 -.355E-14   0.802E-12 0.197E-10 -.119E-10
 
 
 POSITION                                       TOTAL-FORCE (eV/Angst)
 -----------------------------------------------------------------------------------
     -0.00000     -0.00000     -0.00000        -0.000000     -0.000000      0.000000
      3.21522      3.63324      3.69748        -0.000000      0.000000      0.000000
      0.00000      3.63324      3.69748         0.000000      0.000000      0.000000
      3.21522      0.00000     -0.00000         0.000000     -0.000000      0.000000
      4.82282      2.02111      6.20110        -0.000000     -0.000736      0.000405
      1.60761      5.24537      1.19385         0.000000      0.000736     -0.000405
      1.60761      5.65435      4.89133        -0.000000     -0.000736     -0.000405
      4.82282      1.61213      2.50362        -0.000000      0.000736      0.000405
      1.60761      2.68625      6.46166        -0.000000     -0.000107     -0.000372
      4.82282      4.58023      0.93330        -0.000000      0.000107      0.000372
      4.82282      6.31949      4.63077        -0.000000     -0.000107      0.000372
      1.60761      0.94699      2.76418         0.000000      0.000107     -0.000372
      6.06493      5.40582      4.64354         0.000317     -0.001059      0.000078
      3.58072      5.49389      0.94606        -0.000317      0.001059      0.000078
      0.36550      1.77258      6.44889        -0.000317     -0.001059     -0.000078
      2.84971      1.86066      2.75141         0.000317      0.001059     -0.000078
      0.36550      1.86066      2.75141        -0.000317      0.001059     -0.000078
      3.58072      5.40582      4.64354        -0.000317     -0.001059      0.000078
      6.06493      5.49389      0.94606         0.000317      0.001059      0.000078
      2.84971      1.77258      6.44889         0.000317     -0.001059     -0.000078
      4.82282      1.13463      0.80528        -0.000000     -0.000716     -0.000639
      1.60761      6.13184      6.58967        -0.000000      0.000716      0.000639
      1.60761      4.76787      2.89219        -0.000000     -0.000716      0.000639
      4.82282      2.49861      4.50276        -0.000000      0.000716     -0.000639
      4.82282      7.24044      5.88070         0.000000     -0.000216      0.001021
      1.60761      0.02604      1.51426         0.000000      0.000216     -0.001021
      1.60761      3.60720      5.21173         0.000000     -0.000216     -0.001021
      4.82282      3.65928      2.18322        -0.000000      0.000216      0.001021
      1.60761      3.51689      0.37131        -0.000000     -0.000318      0.000648
      4.82282      3.74958      7.02365         0.000000      0.000318     -0.000648
      4.82282      7.15013      3.32617        -0.000000     -0.000318     -0.000648
      1.60761      0.11634      4.06878        -0.000000      0.000318      0.000648
 -----------------------------------------------------------------------------------
    total drift:                               -0.000157      0.000130      0.000086


--------------------------------------------------------------------------------------------------------



  FREE ENERGIE OF THE ION-ELECTRON SYSTEM (eV)
  ---------------------------------------------------
  free  energy   TOTEN  =      -246.43122384 eV

  energy  without entropy=     -246.43122384  energy(sigma->0) =     -246.43122384
 
 d Force = 0.1330935E-05[ 0.759E-06, 0.190E-05]  d Energy = 0.1758951E-05-0.428E-06
 d Force = 0.8686479E-01[ 0.869E-01, 0.869E-01]  d Ewald  = 0.1908096E+00-0.104E+00


--------------------------------------------------------------------------------------------------------


    POTLOK:  cpu time      0.0417: real time      0.0418


--------------------------------------------------------------------------------------------------------


 stress matrix after NEB project (eV)
      0.00028      0.00000      0.00000
      0.00000     -0.00140      0.00000
      0.00000      0.00000     -0.00924
  FORCES: max atom, RMS     0.001108    0.000855
  FORCE total and by dimension    0.004835    0.001059
  Stress total and by dimension    0.009350    0.009240
 Conjugate gradient step on ions:
 trial-energy change:   -0.000002  1 .order   -0.000002   -0.000002   -0.000001
  (g-gl).g = 0.202E-05      g.g   = 0.234E-05  gl.gl    = 0.106E-04
 g(Force)  = 0.209E-05   g(Stress)= 0.243E-06 ortho     = 0.316E-06
 gamma     =   0.19079
 trial     =   1.00412
 opt step  =   1.36724  (harmonic =   1.58830) maximal distance =0.00005354
 next E    =  -246.431224   (d E  =  -0.00000)


--------------------------------------------------------------------------------------------------------


    WAVPRE:  cpu time      0.0085: real time      0.0159
    FEWALD:  cpu time      0.0004: real time      0.0004
    GENKIN:  cpu time      0.0076: real time      0.0076
    ORTHCH:  cpu time      0.1332: real time      0.1339
     LOOP+:  cpu time     26.3816: real time     26.5368


--------------------------------------- Ionic step        5  -------------------------------------------




--------------------------------------- Iteration      5(   1)  ---------------------------------------


    POTLOK:  cpu time      0.0315: real time      0.0317
    SETDIJ:  cpu time      0.0085: real time      0.0085
     EDDAV:  cpu time      2.5909: real time      2.6006
       DOS:  cpu time      0.0011: real time      0.0011
    CHARGE:  cpu time      0.1106: real time      0.1110
    MIXING:  cpu time      0.0008: real time      0.0008
    --------------------------------------------
      LOOP:  cpu time      2.7435: real time      2.7537

 eigenvalue-minimisations  :  5672
 total energy-change (2. order) : 0.7024317E-04  (-0.2671293E-05)
 number of electron     160.0000023 magnetization      -0.0000000
 augmentation part       15.0597119 magnetization      -0.0000000

 Broyden mixing:
  rms(total) = 0.43422E-03    rms(broyden)= 0.43412E-03
  rms(prec ) = 0.59504E-03
  weight for this iteration     100.00

 Free energy of the ion-electron system (eV)
  ---------------------------------------------------
  alpha Z        PSCENC =       419.65869939
  Ewald energy   TEWEN  =     -7012.54049615
  -Hartree energ DENC   =     -3139.36700897
  -exchange      EXHF   =         0.00000000
  -V(xc)+E(xc)   XCENC  =       437.02702470
  PAW double counting   =     21471.11591824   -21295.80707235
  entropy T*S    EENTRO =        -0.00000000
  eigenvalues    EBANDS =      -873.51167636
  atomic energy  EATOM  =      9751.78041952
  Solvation  Ediel_sol  =         0.00000000
  ---------------------------------------------------
  free energy    TOTEN  =      -241.64419198 eV

  energy without entropy =     -241.64419198  energy(sigma->0) =     -241.64419198


--------------------------------------------------------------------------------------------------------




--------------------------------------- Iteration      5(   2)  ---------------------------------------


    POTLOK:  cpu time      0.0327: real time      0.0328
    SETDIJ:  cpu time      0.0085: real time      0.0085
     EDDAV:  cpu time      3.3149: real time      3.3278
       DOS:  cpu time      0.0011: real time      0.0011
    CHARGE:  cpu time      0.1172: real time      0.1176
    MIXING:  cpu time      0.0008: real time      0.0008
    --------------------------------------------
      LOOP:  cpu time      3.4752: real time      3.4886

 eigenvalue-minimisations  :  8144
 total energy-change (2. order) : 0.1483932E-06  (-0.1465903E-06)
 number of electron     160.0000023 magnetization      -0.0000000
 augmentation part       15.0595236 magnetization       0.0000000

 Broyden mixing:
  rms(total) = 0.32988E-03    rms(broyden)= 0.32986E-03
  rms(prec ) = 0.41467E-03
  weight for this iteration     100.00

 eigenvalues of (default mixing * dielectric matrix)
  average eigenvalue GAMMA=   0.6442
  0.6442

 Free energy of the ion-electron system (eV)
  ---------------------------------------------------
  alpha Z        PSCENC =       419.65869939
  Ewald energy   TEWEN  =     -7012.54049615
  -Hartree energ DENC   =     -3139.33154997
  -exchange      EXHF   =         0.00000000
  -V(xc)+E(xc)   XCENC  =       437.02458644
  PAW double counting   =     21470.99707912   -21295.68826077
  entropy T*S    EENTRO =        -0.00000000
  eigenvalues    EBANDS =      -873.54466941
  atomic energy  EATOM  =      9751.78041952
  Solvation  Ediel_sol  =         0.00000000
  ---------------------------------------------------
  free energy    TOTEN  =      -241.64419183 eV

  energy without entropy =     -241.64419183  energy(sigma->0) =     -241.64419183


--------------------------------------------------------------------------------------------------------




--------------------------------------- Iteration      5(   3)  ---------------------------------------


    POTLOK:  cpu time      0.0316: real time      0.0318
    SETDIJ:  cpu time      0.0085: real time      0.0085
     EDDAV:  cpu time      3.2449: real time      3.2649
       DOS:  cpu time      0.0012: real time      0.0048
    CHARGE:  cpu time      0.1185: real time      0.1327
    MIXING:  cpu time      0.0009: real time      0.0009
    --------------------------------------------
      LOOP:  cpu time      3.4056: real time      3.4436

 eigenvalue-minimisations  :  7776
 total energy-change (2. order) : 0.7780727E-07  (-0.2361775E-07)
 number of electron     160.0000023 magnetization      -0.0000000
 augmentation part       15.0597478 magnetization       0.0000000

 Broyden mixing:
  rms(total) = 0.11605E-03    rms(broyden)= 0.11605E-03
  rms(prec ) = 0.14800E-03
  weight for this iteration     100.00

 eigenvalues of (default mixing * dielectric matrix)
  average eigenvalue GAMMA=   0.9409
  1.3019  0.5799

 Free energy of the ion-electron system (eV)
  ---------------------------------------------------
  alpha Z        PSCENC =       419.65869939
  Ewald energy   TEWEN  =     -7012.54049615
  -Hartree energ DENC   =     -3139.33217663
  -exchange      EXHF   =         0.00000000
  -V(xc)+E(xc)   XCENC  =       437.02486270
  PAW double counting   =     21471.04674016   -21295.73778213
  entropy T*S    EENTRO =        -0.00000000
  eigenvalues    EBANDS =      -873.54445861
  atomic energy  EATOM  =      9751.78041952
  Solvation  Ediel_sol  =         0.00000000
  ---------------------------------------------------
  free energy    TOTEN  =      -241.64419175 eV

  energy without entropy =     -241.64419175  energy(sigma->0) =     -241.64419175


--------------------------------------------------------------------------------------------------------




--------------------------------------- Iteration      5(   4)  ---------------------------------------


    POTLOK:  cpu time      0.0321: real time      0.0338
    SETDIJ:  cpu time      0.0085: real time      0.0086
     EDDAV:  cpu time      2.9261: real time      2.9551
       DOS:  cpu time      0.0011: real time      0.0011
    CHARGE:  cpu time      0.1163: real time      0.1167
    MIXING:  cpu time      0.0009: real time      0.0009
    --------------------------------------------
      LOOP:  cpu time      3.0851: real time      3.1162

 eigenvalue-minimisations  :  5816
 total energy-change (2. order) :-0.2323395E-07  (-0.4154577E-08)
 number of electron     160.0000023 magnetization       0.0000000
 augmentation part       15.0596955 magnetization      -0.0000000

 Broyden mixing:
  rms(total) = 0.59606E-04    rms(broyden)= 0.59603E-04
  rms(prec ) = 0.69157E-04
  weight for this iteration     100.00

 eigenvalues of (default mixing * dielectric matrix)
  average eigenvalue GAMMA=   1.1581
  1.9198  1.0298  0.5246

 Free energy of the ion-electron system (eV)
  ---------------------------------------------------
  alpha Z        PSCENC =       419.65869939
  Ewald energy   TEWEN  =     -7012.54049615
  -Hartree energ DENC   =     -3139.32686803
  -exchange      EXHF   =         0.00000000
  -V(xc)+E(xc)   XCENC  =       437.02455093
  PAW double counting   =     21471.07669437   -21295.76784683
  entropy T*S    EENTRO =        -0.00000000
  eigenvalues    EBANDS =      -873.54934498
  atomic energy  EATOM  =      9751.78041952
  Solvation  Ediel_sol  =         0.00000000
  ---------------------------------------------------
  free energy    TOTEN  =      -241.64419178 eV

  energy without entropy =     -241.64419178  energy(sigma->0) =     -241.64419178


--------------------------------------------------------------------------------------------------------




--------------------------------------- Iteration      5(   5)  ---------------------------------------


    POTLOK:  cpu time      0.0311: real time      0.0313
    SETDIJ:  cpu time      0.0089: real time      0.0089
     EDDAV:  cpu time      2.0862: real time      2.0960
       DOS:  cpu time      0.0011: real time      0.0011
    CHARGE:  cpu time      0.1108: real time      0.1116
    MIXING:  cpu time      0.0009: real time      0.0009
    --------------------------------------------
      LOOP:  cpu time      2.2390: real time      2.2497

 eigenvalue-minimisations  :  4128
 total energy-change (2. order) :-0.4805406E-07  (-0.1337943E-08)
 number of electron     160.0000023 magnetization       0.0000000
 augmentation part       15.0597168 magnetization      -0.0000000

 Broyden mixing:
  rms(total) = 0.29584E-04    rms(broyden)= 0.29583E-04
  rms(prec ) = 0.30599E-04
  weight for this iteration     100.00

 eigenvalues of (default mixing * dielectric matrix)
  average eigenvalue GAMMA=   0.9483
  1.8916  1.0259  0.5392  0.3366

 Free energy of the ion-electron system (eV)
  ---------------------------------------------------
  alpha Z        PSCENC =       419.65869939
  Ewald energy   TEWEN  =     -7012.54049615
  -Hartree energ DENC   =     -3139.32548202
  -exchange      EXHF   =         0.00000000
  -V(xc)+E(xc)   XCENC  =       437.02451129
  PAW double counting   =     21471.09219378   -21295.78341653
  entropy T*S    EENTRO =        -0.00000000
  eigenvalues    EBANDS =      -873.55062111
  atomic energy  EATOM  =      9751.78041952
  Solvation  Ediel_sol  =         0.00000000
  ---------------------------------------------------
  free energy    TOTEN  =      -241.64419183 eV

  energy without entropy =     -241.64419183  energy(sigma->0) =     -241.64419183


--------------------------------------------------------------------------------------------------------




--------------------------------------- Iteration      5(   6)  ---------------------------------------


    POTLOK:  cpu time      0.0324: real time      0.0325
    SETDIJ:  cpu time      0.0083: real time      0.0086
     EDDAV:  cpu time      1.7314: real time      1.7384
       DOS:  cpu time      0.0010: real time      0.0010
    CHARGE:  cpu time      0.1102: real time      0.1106
    MIXING:  cpu time      0.0009: real time      0.0009
    --------------------------------------------
      LOOP:  cpu time      1.8843: real time      1.8919

 eigenvalue-minimisations  :  3088
 total energy-change (2. order) :-0.1203080E-07  (-0.2712941E-09)
 number of electron     160.0000023 magnetization       0.0000000
 augmentation part       15.0597157 magnetization      -0.0000000

 Broyden mixing:
  rms(total) = 0.21510E-04    rms(broyden)= 0.21510E-04
  rms(prec ) = 0.22275E-04
  weight for this iteration     100.00

 eigenvalues of (default mixing * dielectric matrix)
  average eigenvalue GAMMA=   1.0256
  2.0738  0.9976  0.5174  0.7696  0.7696

 Free energy of the ion-electron system (eV)
  ---------------------------------------------------
  alpha Z        PSCENC =       419.65869939
  Ewald energy   TEWEN  =     -7012.54049615
  -Hartree energ DENC   =     -3139.32560481
  -exchange      EXHF   =         0.00000000
  -V(xc)+E(xc)   XCENC  =       437.02451829
  PAW double counting   =     21471.07480590   -21295.76604427
  entropy T*S    EENTRO =        -0.00000000
  eigenvalues    EBANDS =      -873.55048971
  atomic energy  EATOM  =      9751.78041952
  Solvation  Ediel_sol  =         0.00000000
  ---------------------------------------------------
  free energy    TOTEN  =      -241.64419184 eV

  energy without entropy =     -241.64419184  energy(sigma->0) =     -241.64419184


--------------------------------------------------------------------------------------------------------




--------------------------------------- Iteration      5(   7)  ---------------------------------------


    POTLOK:  cpu time      0.0315: real time      0.0326
    SETDIJ:  cpu time      0.0088: real time      0.0088
     EDDAV:  cpu time      1.7834: real time      1.7922
       DOS:  cpu time      0.0010: real time      0.0010
    CHARGE:  cpu time      0.1093: real time      0.1097
    MIXING:  cpu time      0.0010: real time      0.0010
    --------------------------------------------
      LOOP:  cpu time      1.9351: real time      1.9454

 eigenvalue-minimisations  :  3044
 total energy-change (2. order) :-0.1429362E-07  (-0.4310916E-10)
 number of electron     160.0000023 magnetization       0.0000000
 augmentation part       15.0597149 magnetization      -0.0000000

 Broyden mixing:
  rms(total) = 0.15785E-04    rms(broyden)= 0.15784E-04
  rms(prec ) = 0.16383E-04
  weight for this iteration     100.00

 eigenvalues of (default mixing * dielectric matrix)
  average eigenvalue GAMMA=   1.2810
  2.1541  2.1541  1.1303  1.1303  0.5137  0.6034

 Free energy of the ion-electron system (eV)
  ---------------------------------------------------
  alpha Z        PSCENC =       419.65869939
  Ewald energy   TEWEN  =     -7012.54049615
  -Hartree energ DENC   =     -3139.32546564
  -exchange      EXHF   =         0.00000000
  -V(xc)+E(xc)   XCENC  =       437.02450637
  PAW double counting   =     21471.04958759   -21295.74084488
  entropy T*S    EENTRO =        -0.00000000
  eigenvalues    EBANDS =      -873.55059806
  atomic energy  EATOM  =      9751.78041952
  Solvation  Ediel_sol  =         0.00000000
  ---------------------------------------------------
  free energy    TOTEN  =      -241.64419185 eV

  energy without entropy =     -241.64419185  energy(sigma->0) =     -241.64419185


--------------------------------------------------------------------------------------------------------




--------------------------------------- Iteration      5(   8)  ---------------------------------------


    POTLOK:  cpu time      0.0327: real time      0.0328
    SETDIJ:  cpu time      0.0083: real time      0.0084
     EDDAV:  cpu time      1.9086: real time      1.9155
       DOS:  cpu time      0.0010: real time      0.0010
    CHARGE:  cpu time      0.1084: real time      0.1086
    MIXING:  cpu time      0.0016: real time      0.0017
    --------------------------------------------
      LOOP:  cpu time      2.0607: real time      2.0679

 eigenvalue-minimisations  :  3000
 total energy-change (2. order) :-0.1999797E-07  (-0.3907905E-10)
 number of electron     160.0000023 magnetization       0.0000000
 augmentation part       15.0597150 magnetization      -0.0000000

 Broyden mixing:
  rms(total) = 0.31390E-05    rms(broyden)= 0.31385E-05
  rms(prec ) = 0.40585E-05
  weight for this iteration     100.00

 eigenvalues of (default mixing * dielectric matrix)
  average eigenvalue GAMMA=   1.2342
  2.5980  1.5289  1.3937  0.9910  0.9910  0.5160  0.6203

 Free energy of the ion-electron system (eV)
  ---------------------------------------------------
  alpha Z        PSCENC =       419.65869939
  Ewald energy   TEWEN  =     -7012.54049615
  -Hartree energ DENC   =     -3139.32593795
  -exchange      EXHF   =         0.00000000
  -V(xc)+E(xc)   XCENC  =       437.02452615
  PAW double counting   =     21470.98485240   -21295.67613252
  entropy T*S    EENTRO =        -0.00000000
  eigenvalues    EBANDS =      -873.55012271
  atomic energy  EATOM  =      9751.78041952
  Solvation  Ediel_sol  =         0.00000000
  ---------------------------------------------------
  free energy    TOTEN  =      -241.64419187 eV

  energy without entropy =     -241.64419187  energy(sigma->0) =     -241.64419187


--------------------------------------------------------------------------------------------------------




--------------------------------------- Iteration      5(   9)  ---------------------------------------


    POTLOK:  cpu time      0.0310: real time      0.0311
    SETDIJ:  cpu time      0.0081: real time      0.0081
     EDDAV:  cpu time      1.7883: real time      1.7960
       DOS:  cpu time      0.0011: real time      0.0011
    --------------------------------------------
      LOOP:  cpu time      1.8285: real time      1.8363

 eigenvalue-minimisations  :  2976
 total energy-change (2. order) :-0.3714376E-08  (-0.8748949E-11)
 number of electron     160.0000023 magnetization       0.0000000
 augmentation part       15.0597150 magnetization      -0.0000000

 Free energy of the ion-electron system (eV)
  ---------------------------------------------------
  alpha Z        PSCENC =       419.65869939
  Ewald energy   TEWEN  =     -7012.54049615
  -Hartree energ DENC   =     -3139.32579682
  -exchange      EXHF   =         0.00000000
  -V(xc)+E(xc)   XCENC  =       437.02451919
  PAW double counting   =     21470.98208321   -21295.67336746
  entropy T*S    EENTRO =        -0.00000000
  eigenvalues    EBANDS =      -873.55025275
  atomic energy  EATOM  =      9751.78041952
  Solvation  Ediel_sol  =         0.00000000
  ---------------------------------------------------
  free energy    TOTEN  =      -241.64419188 eV

  energy without entropy =     -241.64419188  energy(sigma->0) =     -241.64419188


--------------------------------------------------------------------------------------------------------




 average (electrostatic) potential at core
  the test charge radii are     0.9748  1.2598  0.9587  0.7215
  (the norm of the test charge is              1.0000)
       1 -25.7537       2 -25.7537       3 -25.7537       4 -25.7537       5 -28.0290
       6 -28.0290       7 -28.0290       8 -28.0290       9 -87.6991      10 -87.6991
      11 -87.6991      12 -87.6991      13 -72.6901      14 -72.6901      15 -72.6901
      16 -72.6901      17 -72.6901      18 -72.6901      19 -72.6901      20 -72.6901
      21 -72.0163      22 -72.0163      23 -72.0163      24 -72.0163      25 -72.7151
      26 -72.7151      27 -72.7151      28 -72.7151      29 -72.7765      30 -72.7765
      31 -72.7765      32 -72.7765
 
 
 
 E-fermi :   1.4834     XC(G=0): -10.0421     alpha+bet :-10.7901

 Fermi energy:         1.4833603847

 spin component 1

 k-point     1 :       0.0000    0.0000    0.0000
  band No.  band energies     occupation 
      1     -19.2067      1.00000
      2     -19.0080      1.00000
      3     -18.9893      1.00000
      4     -18.9563      1.00000
      5     -16.7193      1.00000
      6     -16.6977      1.00000
      7     -16.6221      1.00000
      8     -16.5447      1.00000
      9     -16.5232      1.00000
     10     -16.4940      1.00000
     11     -16.4774      1.00000
     12     -16.4656      1.00000
     13     -16.4559      1.00000
     14     -16.4498      1.00000
     15     -16.4366      1.00000
     16     -16.4251      1.00000
     17     -14.7423      1.00000
     18     -14.7403      1.00000
     19     -14.2782      1.00000
     20     -14.2437      1.00000
     21      -6.9953      1.00000
     22      -6.7333      1.00000
     23      -6.5981      1.00000
     24      -6.2871      1.00000
     25      -4.7625      1.00000
     26      -4.6897      1.00000
     27      -4.6103      1.00000
     28      -4.4693      1.00000
     29      -4.4414      1.00000
     30      -4.1740      1.00000
     31      -4.1598      1.00000
     32      -4.0204      1.00000
     33      -3.9085      1.00000
     34      -3.9000      1.00000
     35      -3.7596      1.00000
     36      -3.6824      1.00000
     37      -2.4569      1.00000
     38      -2.3926      1.00000
     39      -2.3752      1.00000
     40      -2.2473      1.00000
     41      -2.2323      1.00000
     42      -2.1318      1.00000
     43      -1.9659      1.00000
     44      -1.8610      1.00000
     45      -1.7519      1.00000
     46      -1.6601      1.00000
     47      -1.6362      1.00000
     48      -1.4424      1.00000
     49      -1.3297      1.00000
     50      -1.1731      1.00000
     51      -1.1586      1.00000
     52      -1.1219      1.00000
     53      -1.1147      1.00000
     54      -1.0724      1.00000
     55      -0.7248      1.00000
     56      -0.7093      1.00000
     57      -0.5295      1.00000
     58      -0.4441      1.00000
     59      -0.3844      1.00000
     60      -0.2772      1.00000
     61      -0.2338      1.00000
     62      -0.1742      1.00000
     63      -0.1646      1.00000
     64      -0.1559      1.00000
     65       0.1352      1.00000
     66       0.1847      1.00000
     67       0.2157      1.00000
     68       0.2202      1.00000
     69       0.3250      1.00000
     70       0.3369      1.00000
     71       0.3947      1.00000
     72       0.4123      1.00000
     73       0.5171      1.00000
     74       0.6131      1.00000
     75       0.7728      1.00000
     76       0.7844      1.00000
     77       0.8398      1.00000
     78       0.9002      1.00000
     79       1.0375      1.00000
     80       1.1784      1.00000
     81       4.1444      0.00000
     82       4.2781      0.00000
     83       4.4123      0.00000
     84       4.5970      0.00000
     85       4.7095      0.00000
     86       4.7535      0.00000
     87       4.7622      0.00000
     88       4.8112      0.00000
     89       4.8952      0.00000
     90       4.9529      0.00000
     91       5.5300      0.00000
     92       5.5565      0.00000
     93       5.7088      0.00000
     94       5.9412      0.00000
     95       6.2610      0.00000
     96       6.4711      0.00000
     97       6.6183      0.00000
     98       6.7300      0.00000
     99       7.6565      0.00000
    100       7.9910      0.00000
    101       7.9968      0.00000
    102      10.2676      0.00000
    103      10.2866      0.00000
    104      10.5026      0.00000
    105      10.6591      0.00000
    106      10.6692      0.00000
    107      10.8963      0.00000
    108      10.9969      0.00000
    109      11.0179      0.00000
    110      11.3539      0.00000
    111      11.4888      0.00000
    112      11.5641      0.00000
    113      11.7823      0.00000
    114      11.8072      0.00000
    115      11.9803      0.00000
    116      12.2274      0.00000

 k-point     2 :       0.2500    0.0000    0.0000
  band No.  band energies     occupation 
      1     -19.1621      1.00000
      2     -19.0182      1.00000
      3     -18.9651      1.00000
      4     -18.9412      1.00000
      5     -16.7385      1.00000
      6     -16.7124      1.00000
      7     -16.6717      1.00000
      8     -16.5530      1.00000
      9     -16.5368      1.00000
     10     -16.5235      1.00000
     11     -16.4871      1.00000
     12     -16.4677      1.00000
     13     -16.4658      1.00000
     14     -16.4574      1.00000
     15     -16.4444      1.00000
     16     -16.4215      1.00000
     17     -14.7356      1.00000
     18     -14.7332      1.00000
     19     -14.2732      1.00000
     20     -14.2489      1.00000
     21      -6.8572      1.00000
     22      -6.5719      1.00000
     23      -6.5623      1.00000
     24      -6.2015      1.00000
     25      -4.7048      1.00000
     26      -4.6862      1.00000
     27      -4.6628      1.00000
     28      -4.3668      1.00000
     29      -4.3243      1.00000
     30      -4.2400      1.00000
     31      -4.1956      1.00000
     32      -3.9796      1.00000
     33      -3.9068      1.00000
     34      -3.8200      1.00000
     35      -3.6389      1.00000
     36      -3.6044      1.00000
     37      -2.4274      1.00000
     38      -2.4198      1.00000
     39      -2.4137      1.00000
     40      -2.2442      1.00000
     41      -2.1969      1.00000
     42      -2.1140      1.00000
     43      -2.0189      1.00000
     44      -1.9261      1.00000
     45      -1.7884      1.00000
     46      -1.6980      1.00000
     47      -1.6958      1.00000
     48      -1.4625      1.00000
     49      -1.4622      1.00000
     50      -1.3317      1.00000
     51      -1.2993      1.00000
     52      -1.1995      1.00000
     53      -1.1924      1.00000
     54      -0.7638      1.00000
     55      -0.7615      1.00000
     56      -0.7341      1.00000
     57      -0.6331      1.00000
     58      -0.5253      1.00000
     59      -0.3767      1.00000
     60      -0.2887      1.00000
     61      -0.2826      1.00000
     62      -0.2119      1.00000
     63      -0.1708      1.00000
     64      -0.0950      1.00000
     65      -0.0315      1.00000
     66       0.0324      1.00000
     67       0.1689      1.00000
     68       0.2026      1.00000
     69       0.2826      1.00000
     70       0.3165      1.00000
     71       0.3564      1.00000
     72       0.3566      1.00000
     73       0.4969      1.00000
     74       0.5961      1.00000
     75       0.7107      1.00000
     76       0.7967      1.00000
     77       0.8188      1.00000
     78       0.9136      1.00000
     79       0.9968      1.00000
     80       1.0554      1.00000
     81       4.1617      0.00000
     82       4.2779      0.00000
     83       4.3281      0.00000
     84       4.4886      0.00000
     85       4.6048      0.00000
     86       4.7450      0.00000
     87       4.7790      0.00000
     88       4.8041      0.00000
     89       4.8141      0.00000
     90       4.9421      0.00000
     91       5.4519      0.00000
     92       5.4863      0.00000
     93       6.1283      0.00000
     94       6.3055      0.00000
     95       6.5462      0.00000
     96       6.5603      0.00000
     97       6.7788      0.00000
     98       6.8116      0.00000
     99       7.8527      0.00000
    100       8.0701      0.00000
    101       8.3365      0.00000
    102      10.1992      0.00000
    103      10.2852      0.00000
    104      10.3511      0.00000
    105      10.6719      0.00000
    106      10.7954      0.00000
    107      10.9821      0.00000
    108      11.0736      0.00000
    109      11.1164      0.00000
    110      11.3009      0.00000
    111      11.4332      0.00000
    112      11.5658      0.00000
    113      11.8712      0.00000
    114      11.9179      0.00000
    115      11.9585      0.00000
    116      12.0444      0.00000

 k-point     3 :       0.5000    0.0000    0.0000
  band No.  band energies     occupation 
      1     -19.0728      1.00000
      2     -19.0728      1.00000
      3     -18.9329      1.00000
      4     -18.9329      1.00000
      5     -16.7261      1.00000
      6     -16.7261      1.00000
      7     -16.6962      1.00000
      8     -16.6962      1.00000
      9     -16.5231      1.00000
     10     -16.5231      1.00000
     11     -16.4734      1.00000
     12     -16.4734      1.00000
     13     -16.4705      1.00000
     14     -16.4705      1.00000
     15     -16.4348      1.00000
     16     -16.4348      1.00000
     17     -14.7279      1.00000
     18     -14.7279      1.00000
     19     -14.2612      1.00000
     20     -14.2612      1.00000
     21      -6.6350      1.00000
     22      -6.6350      1.00000
     23      -6.2571      1.00000
     24      -6.2571      1.00000
     25      -4.7267      1.00000
     26      -4.7267      1.00000
     27      -4.4284      1.00000
     28      -4.4284      1.00000
     29      -4.2015      1.00000
     30      -4.2015      1.00000
     31      -4.0779      1.00000
     32      -4.0779      1.00000
     33      -3.6937      1.00000
     34      -3.6937      1.00000
     35      -3.6807      1.00000
     36      -3.6807      1.00000
     37      -2.4205      1.00000
     38      -2.4205      1.00000
     39      -2.3647      1.00000
     40      -2.3647      1.00000
     41      -2.1851      1.00000
     42      -2.1851      1.00000
     43      -2.0017      1.00000
     44      -2.0017      1.00000
     45      -1.6943      1.00000
     46      -1.6943      1.00000
     47      -1.6392      1.00000
     48      -1.6392      1.00000
     49      -1.5543      1.00000
     50      -1.5543      1.00000
     51      -1.4527      1.00000
     52      -1.4527      1.00000
     53      -0.8307      1.00000
     54      -0.8307      1.00000
     55      -0.8161      1.00000
     56      -0.8161      1.00000
     57      -0.7343      1.00000
     58      -0.7343      1.00000
     59      -0.3340      1.00000
     60      -0.3340      1.00000
     61      -0.2830      1.00000
     62      -0.2830      1.00000
     63      -0.2081      1.00000
     64      -0.2081      1.00000
     65       0.0724      1.00000
     66       0.0724      1.00000
     67       0.0877      1.00000
     68       0.0877      1.00000
     69       0.2793      1.00000
     70       0.2793      1.00000
     71       0.3291      1.00000
     72       0.3291      1.00000
     73       0.5482      1.00000
     74       0.5482      1.00000
     75       0.7864      1.00000
     76       0.7864      1.00000
     77       0.8902      1.00000
     78       0.8902      1.00000
     79       0.9054      1.00000
     80       0.9054      1.00000
     81       4.2630      0.00000
     82       4.2630      0.00000
     83       4.2813      0.00000
     84       4.2813      0.00000
     85       4.5625      0.00000
     86       4.5625      0.00000
     87       4.8044      0.00000
     88       4.8044      0.00000
     89       4.8893      0.00000
     90       4.8893      0.00000
     91       5.4119      0.00000
     92       5.4119      0.00000
     93       6.5326      0.00000
     94       6.5326      0.00000
     95       6.6922      0.00000
     96       6.6922      0.00000
     97       6.9434      0.00000
     98       6.9434      0.00000
     99       8.1461      0.00000
    100       8.1461      0.00000
    101       9.2460      0.00000
    102       9.2460      0.00000
    103      10.3406      0.00000
    104      10.3406      0.00000
    105      10.8540      0.00000
    106      10.8540      0.00000
    107      11.1210      0.00000
    108      11.1210      0.00000
    109      11.1822      0.00000
    110      11.1822      0.00000
    111      11.5628      0.00000
    112      11.5628      0.00000
    113      11.8027      0.00000
    114      11.8027      0.00000
    115      12.1662      0.00000
    116      12.1662      0.00000

 k-point     4 :       0.0000    0.3333    0.0000
  band No.  band energies     occupation 
      1     -19.1593      1.00000
      2     -19.0595      1.00000
      3     -18.9800      1.00000
      4     -18.9630      1.00000
      5     -16.7315      1.00000
      6     -16.6583      1.00000
      7     -16.6129      1.00000
      8     -16.5626      1.00000
      9     -16.5280      1.00000
     10     -16.4936      1.00000
     11     -16.4896      1.00000
     12     -16.4759      1.00000
     13     -16.4465      1.00000
     14     -16.4438      1.00000
     15     -16.4421      1.00000
     16     -16.4367      1.00000
     17     -14.7355      1.00000
     18     -14.7338      1.00000
     19     -14.2704      1.00000
     20     -14.2530      1.00000
     21      -6.8967      1.00000
     22      -6.6606      1.00000
     23      -6.6313      1.00000
     24      -6.4505      1.00000
     25      -4.6996      1.00000
     26      -4.6558      1.00000
     27      -4.4677      1.00000
     28      -4.3713      1.00000
     29      -4.3400      1.00000
     30      -4.2361      1.00000
     31      -4.1903      1.00000
     32      -4.0562      1.00000
     33      -4.0039      1.00000
     34      -3.9588      1.00000
     35      -3.9439      1.00000
     36      -3.8200      1.00000
     37      -2.5086      1.00000
     38      -2.3672      1.00000
     39      -2.3239      1.00000
     40      -2.2761      1.00000
     41      -2.2394      1.00000
     42      -2.2260      1.00000
     43      -1.8410      1.00000
     44      -1.7366      1.00000
     45      -1.6991      1.00000
     46      -1.5120      1.00000
     47      -1.5026      1.00000
     48      -1.3687      1.00000
     49      -1.3665      1.00000
     50      -1.3528      1.00000
     51      -1.1493      1.00000
     52      -1.1275      1.00000
     53      -1.0775      1.00000
     54      -0.8855      1.00000
     55      -0.8379      1.00000
     56      -0.6635      1.00000
     57      -0.6232      1.00000
     58      -0.5415      1.00000
     59      -0.4606      1.00000
     60      -0.4234      1.00000
     61      -0.1958      1.00000
     62      -0.1669      1.00000
     63      -0.0759      1.00000
     64       0.0272      1.00000
     65       0.0295      1.00000
     66       0.1474      1.00000
     67       0.1503      1.00000
     68       0.2667      1.00000
     69       0.2979      1.00000
     70       0.3198      1.00000
     71       0.3494      1.00000
     72       0.4073      1.00000
     73       0.5055      1.00000
     74       0.5086      1.00000
     75       0.5983      1.00000
     76       0.7401      1.00000
     77       0.9012      1.00000
     78       0.9063      1.00000
     79       1.2282      1.00000
     80       1.2488      1.00000
     81       4.1681      0.00000
     82       4.2443      0.00000
     83       4.4883      0.00000
     84       4.5846      0.00000
     85       4.7498      0.00000
     86       4.7681      0.00000
     87       4.7880      0.00000
     88       4.7927      0.00000
     89       4.8474      0.00000
     90       4.8877      0.00000
     91       5.5408      0.00000
     92       5.5545      0.00000
     93       5.8491      0.00000
     94       5.9564      0.00000
     95       6.2763      0.00000
     96       6.3981      0.00000
     97       6.6370      0.00000
     98       6.6915      0.00000
     99       7.7417      0.00000
    100       7.9121      0.00000
    101       8.4349      0.00000
    102       9.4941      0.00000
    103      10.5007      0.00000
    104      10.6448      0.00000
    105      10.6670      0.00000
    106      10.7207      0.00000
    107      10.7802      0.00000
    108      10.9582      0.00000
    109      11.2817      0.00000
    110      11.3068      0.00000
    111      11.3479      0.00000
    112      11.4211      0.00000
    113      11.5680      0.00000
    114      11.8532      0.00000
    115      11.9541      0.00000
    116      12.0635      0.00000

 k-point     5 :       0.2500    0.3333    0.0000
  band No.  band energies     occupation 
      1     -19.1194      1.00000
      2     -19.0364      1.00000
      3     -18.9770      1.00000
      4     -18.9540      1.00000
      5     -16.7481      1.00000
      6     -16.6960      1.00000
      7     -16.6562      1.00000
      8     -16.6102      1.00000
      9     -16.5209      1.00000
     10     -16.5043      1.00000
     11     -16.4938      1.00000
     12     -16.4834      1.00000
     13     -16.4581      1.00000
     14     -16.4535      1.00000
     15     -16.4359      1.00000
     16     -16.4298      1.00000
     17     -14.7285      1.00000
     18     -14.7268      1.00000
     19     -14.2683      1.00000
     20     -14.2561      1.00000
     21      -6.7675      1.00000
     22      -6.5920      1.00000
     23      -6.5027      1.00000
     24      -6.3627      1.00000
     25      -4.6791      1.00000
     26      -4.6606      1.00000
     27      -4.4477      1.00000
     28      -4.2953      1.00000
     29      -4.2749      1.00000
     30      -4.2126      1.00000
     31      -4.1672      1.00000
     32      -4.0564      1.00000
     33      -4.0119      1.00000
     34      -3.8628      1.00000
     35      -3.8423      1.00000
     36      -3.7576      1.00000
     37      -2.4776      1.00000
     38      -2.4037      1.00000
     39      -2.2937      1.00000
     40      -2.2925      1.00000
     41      -2.1549      1.00000
     42      -2.1166      1.00000
     43      -1.9353      1.00000
     44      -1.9253      1.00000
     45      -1.8127      1.00000
     46      -1.7052      1.00000
     47      -1.6388      1.00000
     48      -1.5293      1.00000
     49      -1.3936      1.00000
     50      -1.3141      1.00000
     51      -1.2262      1.00000
     52      -1.2167      1.00000
     53      -1.0952      1.00000
     54      -0.9072      1.00000
     55      -0.8251      1.00000
     56      -0.7077      1.00000
     57      -0.7067      1.00000
     58      -0.6533      1.00000
     59      -0.2699      1.00000
     60      -0.2442      1.00000
     61      -0.1816      1.00000
     62      -0.1754      1.00000
     63      -0.1223      1.00000
     64      -0.1208      1.00000
     65       0.0312      1.00000
     66       0.0634      1.00000
     67       0.1350      1.00000
     68       0.1383      1.00000
     69       0.2465      1.00000
     70       0.2633      1.00000
     71       0.2975      1.00000
     72       0.3212      1.00000
     73       0.4118      1.00000
     74       0.5367      1.00000
     75       0.6716      1.00000
     76       0.7534      1.00000
     77       0.8832      1.00000
     78       0.9338      1.00000
     79       1.1148      1.00000
     80       1.1300      1.00000
     81       4.1798      0.00000
     82       4.2472      0.00000
     83       4.3894      0.00000
     84       4.4759      0.00000
     85       4.6187      0.00000
     86       4.7035      0.00000
     87       4.7882      0.00000
     88       4.8096      0.00000
     89       4.8237      0.00000
     90       4.8942      0.00000
     91       5.4666      0.00000
     92       5.4848      0.00000
     93       6.2409      0.00000
     94       6.3201      0.00000
     95       6.5554      0.00000
     96       6.5790      0.00000
     97       6.7562      0.00000
     98       6.7740      0.00000
     99       7.8995      0.00000
    100       8.0089      0.00000
    101       8.7154      0.00000
    102       9.6207      0.00000
    103      10.3480      0.00000
    104      10.4123      0.00000
    105      10.6141      0.00000
    106      10.7640      0.00000
    107      10.9903      0.00000
    108      11.0591      0.00000
    109      11.1771      0.00000
    110      11.2783      0.00000
    111      11.3988      0.00000
    112      11.4496      0.00000
    113      11.7721      0.00000
    114      11.7852      0.00000
    115      11.9232      0.00000
    116      12.0905      0.00000

 k-point     6 :       0.5000    0.3333    0.0000
  band No.  band energies     occupation 
      1     -19.0465      1.00000
      2     -19.0465      1.00000
      3     -18.9586      1.00000
      4     -18.9586      1.00000
      5     -16.7235      1.00000
      6     -16.7235      1.00000
      7     -16.7136      1.00000
      8     -16.7136      1.00000
      9     -16.5135      1.00000
     10     -16.5135      1.00000
     11     -16.4809      1.00000
     12     -16.4809      1.00000
     13     -16.4644      1.00000
     14     -16.4644      1.00000
     15     -16.4338      1.00000
     16     -16.4338      1.00000
     17     -14.7211      1.00000
     18     -14.7210      1.00000
     19     -14.2627      1.00000
     20     -14.2627      1.00000
     21      -6.5835      1.00000
     22      -6.5835      1.00000
     23      -6.3237      1.00000
     24      -6.3237      1.00000
     25      -4.6638      1.00000
     26      -4.6638      1.00000
     27      -4.3254      1.00000
     28      -4.3254      1.00000
     29      -4.1439      1.00000
     30      -4.1439      1.00000
     31      -4.0944      1.00000
     32      -4.0944      1.00000
     33      -3.8537      1.00000
     34      -3.8537      1.00000
     35      -3.7706      1.00000
     36      -3.7706      1.00000
     37      -2.3781      1.00000
     38      -2.3781      1.00000
     39      -2.2908      1.00000
     40      -2.2908      1.00000
     41      -2.1938      1.00000
     42      -2.1938      1.00000
     43      -2.0064      1.00000
     44      -2.0064      1.00000
     45      -1.8615      1.00000
     46      -1.8615      1.00000
     47      -1.7274      1.00000
     48      -1.7274      1.00000
     49      -1.4399      1.00000
     50      -1.4399      1.00000
     51      -1.3039      1.00000
     52      -1.3039      1.00000
     53      -0.9957      1.00000
     54      -0.9957      1.00000
     55      -0.8891      1.00000
     56      -0.8891      1.00000
     57      -0.7056      1.00000
     58      -0.7056      1.00000
     59      -0.3505      1.00000
     60      -0.3505      1.00000
     61      -0.1415      1.00000
     62      -0.1415      1.00000
     63      -0.1309      1.00000
     64      -0.1309      1.00000
     65       0.0301      1.00000
     66       0.0301      1.00000
     67       0.1773      1.00000
     68       0.1773      1.00000
     69       0.2684      1.00000
     70       0.2684      1.00000
     71       0.3357      1.00000
     72       0.3358      1.00000
     73       0.4171      1.00000
     74       0.4171      1.00000
     75       0.7562      1.00000
     76       0.7562      1.00000
     77       0.8154      1.00000
     78       0.8154      1.00000
     79       1.0590      1.00000
     80       1.0590      1.00000
     81       4.2720      0.00000
     82       4.2720      0.00000
     83       4.2869      0.00000
     84       4.2869      0.00000
     85       4.5412      0.00000
     86       4.5412      0.00000
     87       4.8055      0.00000
     88       4.8055      0.00000
     89       4.8741      0.00000
     90       4.8741      0.00000
     91       5.4223      0.00000
     92       5.4223      0.00000
     93       6.5686      0.00000
     94       6.5686      0.00000
     95       6.7125      0.00000
     96       6.7125      0.00000
     97       6.9504      0.00000
     98       6.9504      0.00000
     99       8.1338      0.00000
    100       8.1338      0.00000
    101       9.4360      0.00000
    102       9.4360      0.00000
    103      10.1090      0.00000
    104      10.1090      0.00000
    105      10.6252      0.00000
    106      10.6252      0.00000
    107      11.1956      0.00000
    108      11.1956      0.00000
    109      11.3251      0.00000
    110      11.3251      0.00000
    111      11.4107      0.00000
    112      11.4107      0.00000
    113      11.7195      0.00000
    114      11.7195      0.00000
    115      12.0714      0.00000
    116      12.0714      0.00000

 k-point     7 :       0.0000    0.0000    0.3333
  band No.  band energies     occupation 
      1     -19.1628      1.00000
      2     -19.0622      1.00000
      3     -18.9868      1.00000
      4     -18.9530      1.00000
      5     -16.7099      1.00000
      6     -16.6991      1.00000
      7     -16.5801      1.00000
      8     -16.5273      1.00000
      9     -16.5075      1.00000
     10     -16.5032      1.00000
     11     -16.4835      1.00000
     12     -16.4769      1.00000
     13     -16.4616      1.00000
     14     -16.4611      1.00000
     15     -16.4580      1.00000
     16     -16.4433      1.00000
     17     -14.6347      1.00000
     18     -14.6177      1.00000
     19     -14.4035      1.00000
     20     -14.3697      1.00000
     21      -6.9408      1.00000
     22      -6.8136      1.00000
     23      -6.5156      1.00000
     24      -6.3577      1.00000
     25      -4.7073      1.00000
     26      -4.6705      1.00000
     27      -4.4366      1.00000
     28      -4.4070      1.00000
     29      -4.3568      1.00000
     30      -4.2579      1.00000
     31      -4.2172      1.00000
     32      -4.0977      1.00000
     33      -4.0809      1.00000
     34      -4.0427      1.00000
     35      -3.7183      1.00000
     36      -3.6850      1.00000
     37      -2.2780      1.00000
     38      -2.2758      1.00000
     39      -2.2030      1.00000
     40      -2.0665      1.00000
     41      -2.0526      1.00000
     42      -2.0298      1.00000
     43      -2.0057      1.00000
     44      -1.9028      1.00000
     45      -1.7072      1.00000
     46      -1.6615      1.00000
     47      -1.5530      1.00000
     48      -1.4105      1.00000
     49      -1.3614      1.00000
     50      -1.2939      1.00000
     51      -1.1477      1.00000
     52      -1.1317      1.00000
     53      -1.0191      1.00000
     54      -1.0128      1.00000
     55      -1.0013      1.00000
     56      -0.7456      1.00000
     57      -0.7260      1.00000
     58      -0.7137      1.00000
     59      -0.5942      1.00000
     60      -0.4035      1.00000
     61      -0.3426      1.00000
     62      -0.1592      1.00000
     63      -0.1024      1.00000
     64       0.0097      1.00000
     65       0.0162      1.00000
     66       0.0352      1.00000
     67       0.1021      1.00000
     68       0.1480      1.00000
     69       0.2429      1.00000
     70       0.2928      1.00000
     71       0.4744      1.00000
     72       0.5421      1.00000
     73       0.5724      1.00000
     74       0.6809      1.00000
     75       0.7504      1.00000
     76       0.8263      1.00000
     77       0.8534      1.00000
     78       0.8766      1.00000
     79       1.0025      1.00000
     80       1.1837      1.00000
     81       4.1695      0.00000
     82       4.2268      0.00000
     83       4.5466      0.00000
     84       4.6048      0.00000
     85       4.8657      0.00000
     86       4.9147      0.00000
     87       4.9538      0.00000
     88       4.9756      0.00000
     89       5.0011      0.00000
     90       5.1290      0.00000
     91       5.3034      0.00000
     92       5.3572      0.00000
     93       5.7675      0.00000
     94       5.8772      0.00000
     95       6.3268      0.00000
     96       6.4177      0.00000
     97       6.6366      0.00000
     98       6.9666      0.00000
     99       7.2275      0.00000
    100       7.6529      0.00000
    101       8.5086      0.00000
    102       9.5385      0.00000
    103      10.5599      0.00000
    104      10.6303      0.00000
    105      10.6753      0.00000
    106      10.6761      0.00000
    107      11.0824      0.00000
    108      11.1089      0.00000
    109      11.2778      0.00000
    110      11.2781      0.00000
    111      11.3731      0.00000
    112      11.4419      0.00000
    113      11.6980      0.00000
    114      11.7275      0.00000
    115      12.0891      0.00000
    116      12.2312      0.00000

 k-point     8 :       0.2500    0.0000    0.3333
  band No.  band energies     occupation 
      1     -19.1209      1.00000
      2     -19.0282      1.00000
      3     -18.9933      1.00000
      4     -18.9491      1.00000
      5     -16.7277      1.00000
      6     -16.7155      1.00000
      7     -16.6276      1.00000
      8     -16.5650      1.00000
      9     -16.5314      1.00000
     10     -16.5072      1.00000
     11     -16.5024      1.00000
     12     -16.4827      1.00000
     13     -16.4696      1.00000
     14     -16.4661      1.00000
     15     -16.4460      1.00000
     16     -16.4372      1.00000
     17     -14.6275      1.00000
     18     -14.6151      1.00000
     19     -14.3971      1.00000
     20     -14.3732      1.00000
     21      -6.7940      1.00000
     22      -6.6501      1.00000
     23      -6.4818      1.00000
     24      -6.2966      1.00000
     25      -4.6635      1.00000
     26      -4.6300      1.00000
     27      -4.5031      1.00000
     28      -4.3132      1.00000
     29      -4.2922      1.00000
     30      -4.2602      1.00000
     31      -4.2174      1.00000
     32      -4.1096      1.00000
     33      -3.9904      1.00000
     34      -3.9891      1.00000
     35      -3.6433      1.00000
     36      -3.6256      1.00000
     37      -2.3140      1.00000
     38      -2.2708      1.00000
     39      -2.1761      1.00000
     40      -2.0973      1.00000
     41      -2.0896      1.00000
     42      -1.9655      1.00000
     43      -1.9562      1.00000
     44      -1.8357      1.00000
     45      -1.7990      1.00000
     46      -1.6794      1.00000
     47      -1.5289      1.00000
     48      -1.5121      1.00000
     49      -1.4716      1.00000
     50      -1.4244      1.00000
     51      -1.2820      1.00000
     52      -1.2372      1.00000
     53      -1.1327      1.00000
     54      -1.0764      1.00000
     55      -1.0564      1.00000
     56      -0.9287      1.00000
     57      -0.7101      1.00000
     58      -0.6781      1.00000
     59      -0.5432      1.00000
     60      -0.3515      1.00000
     61      -0.3506      1.00000
     62      -0.1805      1.00000
     63      -0.1545      1.00000
     64      -0.0869      1.00000
     65      -0.0519      1.00000
     66       0.0011      1.00000
     67       0.1017      1.00000
     68       0.1096      1.00000
     69       0.3162      1.00000
     70       0.3598      1.00000
     71       0.4626      1.00000
     72       0.5175      1.00000
     73       0.5242      1.00000
     74       0.5566      1.00000
     75       0.6507      1.00000
     76       0.7128      1.00000
     77       0.8605      1.00000
     78       0.8719      1.00000
     79       0.9482      1.00000
     80       1.0641      1.00000
     81       4.1898      0.00000
     82       4.2431      0.00000
     83       4.4605      0.00000
     84       4.5009      0.00000
     85       4.7828      0.00000
     86       4.8610      0.00000
     87       4.8932      0.00000
     88       4.9501      0.00000
     89       5.0255      0.00000
     90       5.1250      0.00000
     91       5.2151      0.00000
     92       5.2551      0.00000
     93       6.1778      0.00000
     94       6.2627      0.00000
     95       6.5640      0.00000
     96       6.5792      0.00000
     97       6.8614      0.00000
     98       7.0007      0.00000
     99       7.4285      0.00000
    100       7.7006      0.00000
    101       8.7975      0.00000
    102       9.7339      0.00000
    103      10.3588      0.00000
    104      10.5315      0.00000
    105      10.7196      0.00000
    106      10.8162      0.00000
    107      10.9503      0.00000
    108      11.1217      0.00000
    109      11.2928      0.00000
    110      11.3166      0.00000
    111      11.3815      0.00000
    112      11.3897      0.00000
    113      11.7062      0.00000
    114      11.8691      0.00000
    115      12.1093      0.00000
    116      12.1781      0.00000

 k-point     9 :       0.5000    0.0000    0.3333
  band No.  band energies     occupation 
      1     -19.0391      1.00000
      2     -19.0391      1.00000
      3     -18.9693      1.00000
      4     -18.9693      1.00000
      5     -16.7076      1.00000
      6     -16.7076      1.00000
      7     -16.6934      1.00000
      8     -16.6934      1.00000
      9     -16.5216      1.00000
     10     -16.5216      1.00000
     11     -16.4946      1.00000
     12     -16.4946      1.00000
     13     -16.4609      1.00000
     14     -16.4609      1.00000
     15     -16.4447      1.00000
     16     -16.4447      1.00000
     17     -14.6166      1.00000
     18     -14.6166      1.00000
     19     -14.3838      1.00000
     20     -14.3838      1.00000
     21      -6.5506      1.00000
     22      -6.5506      1.00000
     23      -6.3649      1.00000
     24      -6.3649      1.00000
     25      -4.6025      1.00000
     26      -4.6025      1.00000
     27      -4.4418      1.00000
     28      -4.4418      1.00000
     29      -4.1821      1.00000
     30      -4.1821      1.00000
     31      -4.1169      1.00000
     32      -4.1169      1.00000
     33      -3.7672      1.00000
     34      -3.7672      1.00000
     35      -3.7512      1.00000
     36      -3.7512      1.00000
     37      -2.2658      1.00000
     38      -2.2658      1.00000
     39      -2.2187      1.00000
     40      -2.2187      1.00000
     41      -2.0415      1.00000
     42      -2.0415      1.00000
     43      -1.8388      1.00000
     44      -1.8388      1.00000
     45      -1.8211      1.00000
     46      -1.8211      1.00000
     47      -1.6087      1.00000
     48      -1.6087      1.00000
     49      -1.4741      1.00000
     50      -1.4741      1.00000
     51      -1.3024      1.00000
     52      -1.3024      1.00000
     53      -1.1582      1.00000
     54      -1.1582      1.00000
     55      -0.9868      1.00000
     56      -0.9868      1.00000
     57      -0.9609      1.00000
     58      -0.9609      1.00000
     59      -0.5657      1.00000
     60      -0.5657      1.00000
     61      -0.3091      1.00000
     62      -0.3091      1.00000
     63      -0.1267      1.00000
     64      -0.1267      1.00000
     65       0.0894      1.00000
     66       0.0894      1.00000
     67       0.2072      1.00000
     68       0.2072      1.00000
     69       0.3027      1.00000
     70       0.3027      1.00000
     71       0.3504      1.00000
     72       0.3504      1.00000
     73       0.6138      1.00000
     74       0.6138      1.00000
     75       0.7384      1.00000
     76       0.7384      1.00000
     77       0.7580      1.00000
     78       0.7580      1.00000
     79       0.8934      1.00000
     80       0.8934      1.00000
     81       4.3062      0.00000
     82       4.3062      0.00000
     83       4.3261      0.00000
     84       4.3261      0.00000
     85       4.7008      0.00000
     86       4.7008      0.00000
     87       4.9309      0.00000
     88       4.9309      0.00000
     89       5.0916      0.00000
     90       5.0916      0.00000
     91       5.1587      0.00000
     92       5.1587      0.00000
     93       6.5745      0.00000
     94       6.5745      0.00000
     95       6.6712      0.00000
     96       6.6712      0.00000
     97       7.1022      0.00000
     98       7.1022      0.00000
     99       7.7393      0.00000
    100       7.7393      0.00000
    101       9.5641      0.00000
    102       9.5641      0.00000
    103      10.1727      0.00000
    104      10.1727      0.00000
    105      10.8628      0.00000
    106      10.8628      0.00000
    107      11.0097      0.00000
    108      11.0097      0.00000
    109      11.2764      0.00000
    110      11.2764      0.00000
    111      11.3986      0.00000
    112      11.3986      0.00000
    113      11.9685      0.00000
    114      11.9685      0.00000
    115      12.0588      0.00000
    116      12.0588      0.00000

 k-point    10 :       0.0000    0.3333    0.3333
  band No.  band energies     occupation 
      1     -19.1315      1.00000
      2     -19.0782      1.00000
      3     -18.9840      1.00000
      4     -18.9681      1.00000
      5     -16.7258      1.00000
      6     -16.6918      1.00000
      7     -16.6003      1.00000
      8     -16.5703      1.00000
      9     -16.5179      1.00000
     10     -16.4981      1.00000
     11     -16.4809      1.00000
     12     -16.4715      1.00000
     13     -16.4501      1.00000
     14     -16.4464      1.00000
     15     -16.4438      1.00000
     16     -16.4265      1.00000
     17     -14.6273      1.00000
     18     -14.6186      1.00000
     19     -14.3930      1.00000
     20     -14.3761      1.00000
     21      -6.8462      1.00000
     22      -6.7231      1.00000
     23      -6.6019      1.00000
     24      -6.4988      1.00000
     25      -4.6921      1.00000
     26      -4.6621      1.00000
     27      -4.4081      1.00000
     28      -4.3214      1.00000
     29      -4.2924      1.00000
     30      -4.2127      1.00000
     31      -4.1753      1.00000
     32      -4.1730      1.00000
     33      -4.0029      1.00000
     34      -3.9728      1.00000
     35      -3.9111      1.00000
     36      -3.8412      1.00000
     37      -2.3270      1.00000
     38      -2.2191      1.00000
     39      -2.1902      1.00000
     40      -2.1431      1.00000
     41      -2.1007      1.00000
     42      -2.0330      1.00000
     43      -1.8532      1.00000
     44      -1.7441      1.00000
     45      -1.7419      1.00000
     46      -1.6038      1.00000
     47      -1.5294      1.00000
     48      -1.4966      1.00000
     49      -1.3803      1.00000
     50      -1.3524      1.00000
     51      -1.3314      1.00000
     52      -1.2187      1.00000
     53      -1.1559      1.00000
     54      -0.9214      1.00000
     55      -0.8209      1.00000
     56      -0.7552      1.00000
     57      -0.7076      1.00000
     58      -0.7022      1.00000
     59      -0.4713      1.00000
     60      -0.4708      1.00000
     61      -0.3599      1.00000
     62      -0.2736      1.00000
     63      -0.1136      1.00000
     64      -0.0828      1.00000
     65       0.0072      1.00000
     66       0.0347      1.00000
     67       0.2080      1.00000
     68       0.2538      1.00000
     69       0.2551      1.00000
     70       0.3052      1.00000
     71       0.4841      1.00000
     72       0.5610      1.00000
     73       0.5784      1.00000
     74       0.6127      1.00000
     75       0.7014      1.00000
     76       0.7369      1.00000
     77       0.8506      1.00000
     78       0.8581      1.00000
     79       1.1533      1.00000
     80       1.2251      1.00000
     81       4.1954      0.00000
     82       4.2338      0.00000
     83       4.5423      0.00000
     84       4.5861      0.00000
     85       4.8655      0.00000
     86       4.9029      0.00000
     87       4.9308      0.00000
     88       4.9763      0.00000
     89       5.0110      0.00000
     90       5.0809      0.00000
     91       5.3264      0.00000
     92       5.3526      0.00000
     93       5.8758      0.00000
     94       5.9270      0.00000
     95       6.3073      0.00000
     96       6.3611      0.00000
     97       6.7199      0.00000
     98       6.8753      0.00000
     99       7.3435      0.00000
    100       7.5485      0.00000
    101       8.8769      0.00000
    102       9.5027      0.00000
    103      10.3649      0.00000
    104      10.4963      0.00000
    105      10.6902      0.00000
    106      10.7168      0.00000
    107      11.0372      0.00000
    108      11.1362      0.00000
    109      11.2836      0.00000
    110      11.3279      0.00000
    111      11.3491      0.00000
    112      11.4248      0.00000
    113      11.4475      0.00000
    114      11.7151      0.00000
    115      11.9569      0.00000
    116      12.1086      0.00000

 k-point    11 :       0.2500    0.3333    0.3333
  band No.  band energies     occupation 
      1     -19.0932      1.00000
      2     -19.0455      1.00000
      3     -18.9840      1.00000
      4     -18.9639      1.00000
      5     -16.7456      1.00000
      6     -16.7198      1.00000
      7     -16.6452      1.00000
      8     -16.6207      1.00000
      9     -16.5167      1.00000
     10     -16.4997      1.00000
     11     -16.4894      1.00000
     12     -16.4780      1.00000
     13     -16.4617      1.00000
     14     -16.4591      1.00000
     15     -16.4334      1.00000
     16     -16.4223      1.00000
     17     -14.6205      1.00000
     18     -14.6140      1.00000
     19     -14.3898      1.00000
     20     -14.3778      1.00000
     21      -6.7167      1.00000
     22      -6.5929      1.00000
     23      -6.5352      1.00000
     24      -6.4229      1.00000
     25      -4.6417      1.00000
     26      -4.6343      1.00000
     27      -4.3748      1.00000
     28      -4.3040      1.00000
     29      -4.2455      1.00000
     30      -4.2331      1.00000
     31      -4.1897      1.00000
     32      -4.0874      1.00000
     33      -4.0069      1.00000
     34      -3.9131      1.00000
     35      -3.7661      1.00000
     36      -3.7548      1.00000
     37      -2.3251      1.00000
     38      -2.2391      1.00000
     39      -2.1924      1.00000
     40      -2.1402      1.00000
     41      -2.0556      1.00000
     42      -2.0151      1.00000
     43      -1.9815      1.00000
     44      -1.8567      1.00000
     45      -1.7989      1.00000
     46      -1.7104      1.00000
     47      -1.5661      1.00000
     48      -1.5522      1.00000
     49      -1.4423      1.00000
     50      -1.3651      1.00000
     51      -1.3433      1.00000
     52      -1.3180      1.00000
     53      -1.2009      1.00000
     54      -1.1774      1.00000
     55      -0.9300      1.00000
     56      -0.8595      1.00000
     57      -0.7100      1.00000
     58      -0.6576      1.00000
     59      -0.5363      1.00000
     60      -0.4472      1.00000
     61      -0.2330      1.00000
     62      -0.1659      1.00000
     63      -0.1409      1.00000
     64      -0.0323      1.00000
     65       0.0187      1.00000
     66       0.0510      1.00000
     67       0.0803      1.00000
     68       0.1815      1.00000
     69       0.2601      1.00000
     70       0.3354      1.00000
     71       0.3808      1.00000
     72       0.4502      1.00000
     73       0.5509      1.00000
     74       0.5578      1.00000
     75       0.6418      1.00000
     76       0.7009      1.00000
     77       0.8232      1.00000
     78       0.8980      1.00000
     79       1.0561      1.00000
     80       1.0950      1.00000
     81       4.2109      0.00000
     82       4.2471      0.00000
     83       4.4512      0.00000
     84       4.4918      0.00000
     85       4.7881      0.00000
     86       4.8214      0.00000
     87       4.9075      0.00000
     88       4.9283      0.00000
     89       5.0286      0.00000
     90       5.0763      0.00000
     91       5.2422      0.00000
     92       5.2630      0.00000
     93       6.2646      0.00000
     94       6.3025      0.00000
     95       6.5675      0.00000
     96       6.5848      0.00000
     97       6.8690      0.00000
     98       6.9448      0.00000
     99       7.4898      0.00000
    100       7.6240      0.00000
    101       9.1200      0.00000
    102       9.6891      0.00000
    103      10.2863      0.00000
    104      10.4339      0.00000
    105      10.6484      0.00000
    106      10.7727      0.00000
    107      10.9443      0.00000
    108      11.0201      0.00000
    109      11.2228      0.00000
    110      11.3126      0.00000
    111      11.4049      0.00000
    112      11.4773      0.00000
    113      11.6200      0.00000
    114      11.8417      0.00000
    115      12.0238      0.00000
    116      12.0914      0.00000

 k-point    12 :       0.5000    0.3333    0.3333
  band No.  band energies     occupation 
      1     -19.0245      1.00000
      2     -19.0245      1.00000
      3     -18.9805      1.00000
      4     -18.9805      1.00000
      5     -16.7292      1.00000
      6     -16.7292      1.00000
      7     -16.7172      1.00000
      8     -16.7172      1.00000
      9     -16.5087      1.00000
     10     -16.5087      1.00000
     11     -16.4844      1.00000
     12     -16.4844      1.00000
     13     -16.4570      1.00000
     14     -16.4570      1.00000
     15     -16.4335      1.00000
     16     -16.4335      1.00000
     17     -14.6119      1.00000
     18     -14.6119      1.00000
     19     -14.3831      1.00000
     20     -14.3831      1.00000
     21      -6.5312      1.00000
     22      -6.5312      1.00000
     23      -6.4045      1.00000
     24      -6.4045      1.00000
     25      -4.5649      1.00000
     26      -4.5649      1.00000
     27      -4.3978      1.00000
     28      -4.3978      1.00000
     29      -4.1204      1.00000
     30      -4.1204      1.00000
     31      -4.0969      1.00000
     32      -4.0969      1.00000
     33      -3.8465      1.00000
     34      -3.8465      1.00000
     35      -3.7440      1.00000
     36      -3.7440      1.00000
     37      -2.2920      1.00000
     38      -2.2920      1.00000
     39      -2.2294      1.00000
     40      -2.2294      1.00000
     41      -2.0566      1.00000
     42      -2.0566      1.00000
     43      -1.9199      1.00000
     44      -1.9199      1.00000
     45      -1.8329      1.00000
     46      -1.8329      1.00000
     47      -1.6510      1.00000
     48      -1.6510      1.00000
     49      -1.5266      1.00000
     50      -1.5266      1.00000
     51      -1.3573      1.00000
     52      -1.3573      1.00000
     53      -1.2519      1.00000
     54      -1.2519      1.00000
     55      -1.0152      1.00000
     56      -1.0152      1.00000
     57      -0.7228      1.00000
     58      -0.7228      1.00000
     59      -0.6090      1.00000
     60      -0.6090      1.00000
     61      -0.2078      1.00000
     62      -0.2078      1.00000
     63      -0.0592      1.00000
     64      -0.0592      1.00000
     65       0.1331      1.00000
     66       0.1331      1.00000
     67       0.2198      1.00000
     68       0.2198      1.00000
     69       0.3115      1.00000
     70       0.3115      1.00000
     71       0.3586      1.00000
     72       0.3586      1.00000
     73       0.5186      1.00000
     74       0.5186      1.00000
     75       0.6415      1.00000
     76       0.6415      1.00000
     77       0.8254      1.00000
     78       0.8254      1.00000
     79       0.9459      1.00000
     80       0.9459      1.00000
     81       4.3016      0.00000
     82       4.3016      0.00000
     83       4.3353      0.00000
     84       4.3353      0.00000
     85       4.6924      0.00000
     86       4.6924      0.00000
     87       4.9213      0.00000
     88       4.9213      0.00000
     89       5.0485      0.00000
     90       5.0485      0.00000
     91       5.1882      0.00000
     92       5.1882      0.00000
     93       6.6117      0.00000
     94       6.6117      0.00000
     95       6.6953      0.00000
     96       6.6953      0.00000
     97       7.0956      0.00000
     98       7.0956      0.00000
     99       7.7251      0.00000
    100       7.7251      0.00000
    101       9.7410      0.00000
    102       9.7410      0.00000
    103      10.1174      0.00000
    104      10.1174      0.00000
    105      10.6549      0.00000
    106      10.6549      0.00000
    107      10.9154      0.00000
    108      10.9154      0.00000
    109      11.3469      0.00000
    110      11.3469      0.00000
    111      11.4447      0.00000
    112      11.4447      0.00000
    113      11.9653      0.00000
    114      11.9653      0.00000
    115      12.1154      0.00000
    116      12.1154      0.00000
 Fermi energy:         1.4833603847

 spin component 2

 k-point     1 :       0.0000    0.0000    0.0000
  band No.  band energies     occupation 
      1     -19.2067      1.00000
      2     -19.0080      1.00000
      3     -18.9893      1.00000
      4     -18.9563      1.00000
      5     -16.7193      1.00000
      6     -16.6977      1.00000
      7     -16.6221      1.00000
      8     -16.5447      1.00000
      9     -16.5232      1.00000
     10     -16.4940      1.00000
     11     -16.4774      1.00000
     12     -16.4656      1.00000
     13     -16.4559      1.00000
     14     -16.4498      1.00000
     15     -16.4366      1.00000
     16     -16.4251      1.00000
     17     -14.7423      1.00000
     18     -14.7403      1.00000
     19     -14.2782      1.00000
     20     -14.2437      1.00000
     21      -6.9953      1.00000
     22      -6.7333      1.00000
     23      -6.5981      1.00000
     24      -6.2871      1.00000
     25      -4.7625      1.00000
     26      -4.6897      1.00000
     27      -4.6103      1.00000
     28      -4.4693      1.00000
     29      -4.4414      1.00000
     30      -4.1740      1.00000
     31      -4.1598      1.00000
     32      -4.0204      1.00000
     33      -3.9085      1.00000
     34      -3.9000      1.00000
     35      -3.7596      1.00000
     36      -3.6824      1.00000
     37      -2.4569      1.00000
     38      -2.3926      1.00000
     39      -2.3752      1.00000
     40      -2.2473      1.00000
     41      -2.2323      1.00000
     42      -2.1318      1.00000
     43      -1.9659      1.00000
     44      -1.8610      1.00000
     45      -1.7519      1.00000
     46      -1.6601      1.00000
     47      -1.6362      1.00000
     48      -1.4424      1.00000
     49      -1.3297      1.00000
     50      -1.1731      1.00000
     51      -1.1586      1.00000
     52      -1.1219      1.00000
     53      -1.1147      1.00000
     54      -1.0724      1.00000
     55      -0.7248      1.00000
     56      -0.7093      1.00000
     57      -0.5295      1.00000
     58      -0.4441      1.00000
     59      -0.3844      1.00000
     60      -0.2772      1.00000
     61      -0.2338      1.00000
     62      -0.1742      1.00000
     63      -0.1646      1.00000
     64      -0.1559      1.00000
     65       0.1352      1.00000
     66       0.1847      1.00000
     67       0.2157      1.00000
     68       0.2202      1.00000
     69       0.3250      1.00000
     70       0.3369      1.00000
     71       0.3947      1.00000
     72       0.4123      1.00000
     73       0.5171      1.00000
     74       0.6131      1.00000
     75       0.7728      1.00000
     76       0.7844      1.00000
     77       0.8398      1.00000
     78       0.9002      1.00000
     79       1.0375      1.00000
     80       1.1784      1.00000
     81       4.1444      0.00000
     82       4.2781      0.00000
     83       4.4123      0.00000
     84       4.5970      0.00000
     85       4.7095      0.00000
     86       4.7535      0.00000
     87       4.7622      0.00000
     88       4.8112      0.00000
     89       4.8952      0.00000
     90       4.9529      0.00000
     91       5.5300      0.00000
     92       5.5565      0.00000
     93       5.7088      0.00000
     94       5.9412      0.00000
     95       6.2610      0.00000
     96       6.4711      0.00000
     97       6.6183      0.00000
     98       6.7300      0.00000
     99       7.6565      0.00000
    100       7.9910      0.00000
    101       7.9968      0.00000
    102      10.2676      0.00000
    103      10.2866      0.00000
    104      10.5026      0.00000
    105      10.6591      0.00000
    106      10.6692      0.00000
    107      10.8963      0.00000
    108      10.9969      0.00000
    109      11.0179      0.00000
    110      11.3539      0.00000
    111      11.4888      0.00000
    112      11.5641      0.00000
    113      11.7823      0.00000
    114      11.8072      0.00000
    115      11.9803      0.00000
    116      12.2275      0.00000

 k-point     2 :       0.2500    0.0000    0.0000
  band No.  band energies     occupation 
      1     -19.1621      1.00000
      2     -19.0182      1.00000
      3     -18.9651      1.00000
      4     -18.9412      1.00000
      5     -16.7385      1.00000
      6     -16.7124      1.00000
      7     -16.6717      1.00000
      8     -16.5530      1.00000
      9     -16.5368      1.00000
     10     -16.5235      1.00000
     11     -16.4871      1.00000
     12     -16.4677      1.00000
     13     -16.4658      1.00000
     14     -16.4574      1.00000
     15     -16.4444      1.00000
     16     -16.4215      1.00000
     17     -14.7356      1.00000
     18     -14.7332      1.00000
     19     -14.2732      1.00000
     20     -14.2489      1.00000
     21      -6.8572      1.00000
     22      -6.5719      1.00000
     23      -6.5623      1.00000
     24      -6.2015      1.00000
     25      -4.7048      1.00000
     26      -4.6862      1.00000
     27      -4.6628      1.00000
     28      -4.3668      1.00000
     29      -4.3243      1.00000
     30      -4.2400      1.00000
     31      -4.1956      1.00000
     32      -3.9796      1.00000
     33      -3.9068      1.00000
     34      -3.8200      1.00000
     35      -3.6389      1.00000
     36      -3.6044      1.00000
     37      -2.4274      1.00000
     38      -2.4198      1.00000
     39      -2.4137      1.00000
     40      -2.2442      1.00000
     41      -2.1969      1.00000
     42      -2.1140      1.00000
     43      -2.0189      1.00000
     44      -1.9261      1.00000
     45      -1.7884      1.00000
     46      -1.6980      1.00000
     47      -1.6958      1.00000
     48      -1.4625      1.00000
     49      -1.4622      1.00000
     50      -1.3317      1.00000
     51      -1.2993      1.00000
     52      -1.1995      1.00000
     53      -1.1924      1.00000
     54      -0.7638      1.00000
     55      -0.7615      1.00000
     56      -0.7341      1.00000
     57      -0.6331      1.00000
     58      -0.5253      1.00000
     59      -0.3767      1.00000
     60      -0.2887      1.00000
     61      -0.2826      1.00000
     62      -0.2119      1.00000
     63      -0.1708      1.00000
     64      -0.0950      1.00000
     65      -0.0315      1.00000
     66       0.0324      1.00000
     67       0.1689      1.00000
     68       0.2026      1.00000
     69       0.2826      1.00000
     70       0.3165      1.00000
     71       0.3564      1.00000
     72       0.3566      1.00000
     73       0.4969      1.00000
     74       0.5961      1.00000
     75       0.7107      1.00000
     76       0.7967      1.00000
     77       0.8188      1.00000
     78       0.9136      1.00000
     79       0.9968      1.00000
     80       1.0554      1.00000
     81       4.1617      0.00000
     82       4.2779      0.00000
     83       4.3281      0.00000
     84       4.4886      0.00000
     85       4.6048      0.00000
     86       4.7450      0.00000
     87       4.7790      0.00000
     88       4.8041      0.00000
     89       4.8141      0.00000
     90       4.9421      0.00000
     91       5.4519      0.00000
     92       5.4863      0.00000
     93       6.1283      0.00000
     94       6.3055      0.00000
     95       6.5462      0.00000
     96       6.5603      0.00000
     97       6.7788      0.00000
     98       6.8116      0.00000
     99       7.8527      0.00000
    100       8.0701      0.00000
    101       8.3365      0.00000
    102      10.1992      0.00000
    103      10.2852      0.00000
    104      10.3511      0.00000
    105      10.6719      0.00000
    106      10.7954      0.00000
    107      10.9821      0.00000
    108      11.0736      0.00000
    109      11.1164      0.00000
    110      11.3009      0.00000
    111      11.4332      0.00000
    112      11.5658      0.00000
    113      11.8712      0.00000
    114      11.9179      0.00000
    115      11.9585      0.00000
    116      12.0444      0.00000

 k-point     3 :       0.5000    0.0000    0.0000
  band No.  band energies     occupation 
      1     -19.0728      1.00000
      2     -19.0728      1.00000
      3     -18.9329      1.00000
      4     -18.9329      1.00000
      5     -16.7261      1.00000
      6     -16.7261      1.00000
      7     -16.6962      1.00000
      8     -16.6962      1.00000
      9     -16.5231      1.00000
     10     -16.5231      1.00000
     11     -16.4734      1.00000
     12     -16.4734      1.00000
     13     -16.4705      1.00000
     14     -16.4705      1.00000
     15     -16.4348      1.00000
     16     -16.4348      1.00000
     17     -14.7279      1.00000
     18     -14.7279      1.00000
     19     -14.2612      1.00000
     20     -14.2612      1.00000
     21      -6.6350      1.00000
     22      -6.6350      1.00000
     23      -6.2571      1.00000
     24      -6.2571      1.00000
     25      -4.7267      1.00000
     26      -4.7267      1.00000
     27      -4.4284      1.00000
     28      -4.4284      1.00000
     29      -4.2015      1.00000
     30      -4.2015      1.00000
     31      -4.0779      1.00000
     32      -4.0779      1.00000
     33      -3.6937      1.00000
     34      -3.6937      1.00000
     35      -3.6807      1.00000
     36      -3.6807      1.00000
     37      -2.4205      1.00000
     38      -2.4205      1.00000
     39      -2.3647      1.00000
     40      -2.3647      1.00000
     41      -2.1851      1.00000
     42      -2.1851      1.00000
     43      -2.0017      1.00000
     44      -2.0017      1.00000
     45      -1.6943      1.00000
     46      -1.6943      1.00000
     47      -1.6392      1.00000
     48      -1.6392      1.00000
     49      -1.5543      1.00000
     50      -1.5543      1.00000
     51      -1.4527      1.00000
     52      -1.4527      1.00000
     53      -0.8307      1.00000
     54      -0.8307      1.00000
     55      -0.8161      1.00000
     56      -0.8161      1.00000
     57      -0.7343      1.00000
     58      -0.7343      1.00000
     59      -0.3340      1.00000
     60      -0.3340      1.00000
     61      -0.2830      1.00000
     62      -0.2830      1.00000
     63      -0.2081      1.00000
     64      -0.2081      1.00000
     65       0.0724      1.00000
     66       0.0724      1.00000
     67       0.0877      1.00000
     68       0.0877      1.00000
     69       0.2793      1.00000
     70       0.2793      1.00000
     71       0.3291      1.00000
     72       0.3291      1.00000
     73       0.5482      1.00000
     74       0.5482      1.00000
     75       0.7864      1.00000
     76       0.7864      1.00000
     77       0.8902      1.00000
     78       0.8902      1.00000
     79       0.9054      1.00000
     80       0.9054      1.00000
     81       4.2630      0.00000
     82       4.2630      0.00000
     83       4.2813      0.00000
     84       4.2813      0.00000
     85       4.5625      0.00000
     86       4.5625      0.00000
     87       4.8044      0.00000
     88       4.8044      0.00000
     89       4.8893      0.00000
     90       4.8893      0.00000
     91       5.4119      0.00000
     92       5.4119      0.00000
     93       6.5326      0.00000
     94       6.5326      0.00000
     95       6.6922      0.00000
     96       6.6922      0.00000
     97       6.9434      0.00000
     98       6.9434      0.00000
     99       8.1461      0.00000
    100       8.1461      0.00000
    101       9.2460      0.00000
    102       9.2460      0.00000
    103      10.3406      0.00000
    104      10.3406      0.00000
    105      10.8540      0.00000
    106      10.8540      0.00000
    107      11.1210      0.00000
    108      11.1210      0.00000
    109      11.1822      0.00000
    110      11.1822      0.00000
    111      11.5628      0.00000
    112      11.5628      0.00000
    113      11.8027      0.00000
    114      11.8027      0.00000
    115      12.1662      0.00000
    116      12.1662      0.00000

 k-point     4 :       0.0000    0.3333    0.0000
  band No.  band energies     occupation 
      1     -19.1593      1.00000
      2     -19.0595      1.00000
      3     -18.9800      1.00000
      4     -18.9630      1.00000
      5     -16.7315      1.00000
      6     -16.6583      1.00000
      7     -16.6129      1.00000
      8     -16.5626      1.00000
      9     -16.5280      1.00000
     10     -16.4936      1.00000
     11     -16.4896      1.00000
     12     -16.4759      1.00000
     13     -16.4465      1.00000
     14     -16.4438      1.00000
     15     -16.4421      1.00000
     16     -16.4367      1.00000
     17     -14.7355      1.00000
     18     -14.7338      1.00000
     19     -14.2704      1.00000
     20     -14.2530      1.00000
     21      -6.8967      1.00000
     22      -6.6606      1.00000
     23      -6.6313      1.00000
     24      -6.4505      1.00000
     25      -4.6996      1.00000
     26      -4.6558      1.00000
     27      -4.4677      1.00000
     28      -4.3713      1.00000
     29      -4.3400      1.00000
     30      -4.2361      1.00000
     31      -4.1903      1.00000
     32      -4.0562      1.00000
     33      -4.0039      1.00000
     34      -3.9588      1.00000
     35      -3.9439      1.00000
     36      -3.8200      1.00000
     37      -2.5086      1.00000
     38      -2.3672      1.00000
     39      -2.3239      1.00000
     40      -2.2761      1.00000
     41      -2.2394      1.00000
     42      -2.2260      1.00000
     43      -1.8410      1.00000
     44      -1.7366      1.00000
     45      -1.6991      1.00000
     46      -1.5120      1.00000
     47      -1.5026      1.00000
     48      -1.3687      1.00000
     49      -1.3665      1.00000
     50      -1.3528      1.00000
     51      -1.1493      1.00000
     52      -1.1275      1.00000
     53      -1.0775      1.00000
     54      -0.8855      1.00000
     55      -0.8379      1.00000
     56      -0.6635      1.00000
     57      -0.6232      1.00000
     58      -0.5415      1.00000
     59      -0.4606      1.00000
     60      -0.4234      1.00000
     61      -0.1958      1.00000
     62      -0.1669      1.00000
     63      -0.0759      1.00000
     64       0.0272      1.00000
     65       0.0295      1.00000
     66       0.1474      1.00000
     67       0.1503      1.00000
     68       0.2667      1.00000
     69       0.2979      1.00000
     70       0.3198      1.00000
     71       0.3494      1.00000
     72       0.4073      1.00000
     73       0.5055      1.00000
     74       0.5086      1.00000
     75       0.5983      1.00000
     76       0.7401      1.00000
     77       0.9012      1.00000
     78       0.9063      1.00000
     79       1.2282      1.00000
     80       1.2488      1.00000
     81       4.1681      0.00000
     82       4.2443      0.00000
     83       4.4883      0.00000
     84       4.5846      0.00000
     85       4.7498      0.00000
     86       4.7681      0.00000
     87       4.7880      0.00000
     88       4.7927      0.00000
     89       4.8474      0.00000
     90       4.8877      0.00000
     91       5.5408      0.00000
     92       5.5545      0.00000
     93       5.8491      0.00000
     94       5.9564      0.00000
     95       6.2763      0.00000
     96       6.3981      0.00000
     97       6.6370      0.00000
     98       6.6915      0.00000
     99       7.7417      0.00000
    100       7.9121      0.00000
    101       8.4349      0.00000
    102       9.4941      0.00000
    103      10.5007      0.00000
    104      10.6448      0.00000
    105      10.6670      0.00000
    106      10.7207      0.00000
    107      10.7802      0.00000
    108      10.9582      0.00000
    109      11.2817      0.00000
    110      11.3068      0.00000
    111      11.3479      0.00000
    112      11.4211      0.00000
    113      11.5680      0.00000
    114      11.8532      0.00000
    115      11.9541      0.00000
    116      12.0635      0.00000

 k-point     5 :       0.2500    0.3333    0.0000
  band No.  band energies     occupation 
      1     -19.1194      1.00000
      2     -19.0364      1.00000
      3     -18.9770      1.00000
      4     -18.9540      1.00000
      5     -16.7481      1.00000
      6     -16.6960      1.00000
      7     -16.6562      1.00000
      8     -16.6102      1.00000
      9     -16.5209      1.00000
     10     -16.5043      1.00000
     11     -16.4938      1.00000
     12     -16.4834      1.00000
     13     -16.4581      1.00000
     14     -16.4535      1.00000
     15     -16.4359      1.00000
     16     -16.4298      1.00000
     17     -14.7285      1.00000
     18     -14.7268      1.00000
     19     -14.2683      1.00000
     20     -14.2561      1.00000
     21      -6.7675      1.00000
     22      -6.5920      1.00000
     23      -6.5027      1.00000
     24      -6.3627      1.00000
     25      -4.6791      1.00000
     26      -4.6606      1.00000
     27      -4.4477      1.00000
     28      -4.2953      1.00000
     29      -4.2749      1.00000
     30      -4.2126      1.00000
     31      -4.1672      1.00000
     32      -4.0564      1.00000
     33      -4.0119      1.00000
     34      -3.8628      1.00000
     35      -3.8423      1.00000
     36      -3.7576      1.00000
     37      -2.4776      1.00000
     38      -2.4037      1.00000
     39      -2.2937      1.00000
     40      -2.2925      1.00000
     41      -2.1549      1.00000
     42      -2.1166      1.00000
     43      -1.9353      1.00000
     44      -1.9253      1.00000
     45      -1.8127      1.00000
     46      -1.7052      1.00000
     47      -1.6388      1.00000
     48      -1.5293      1.00000
     49      -1.3936      1.00000
     50      -1.3141      1.00000
     51      -1.2262      1.00000
     52      -1.2167      1.00000
     53      -1.0952      1.00000
     54      -0.9072      1.00000
     55      -0.8251      1.00000
     56      -0.7077      1.00000
     57      -0.7067      1.00000
     58      -0.6533      1.00000
     59      -0.2699      1.00000
     60      -0.2442      1.00000
     61      -0.1816      1.00000
     62      -0.1754      1.00000
     63      -0.1223      1.00000
     64      -0.1208      1.00000
     65       0.0312      1.00000
     66       0.0634      1.00000
     67       0.1350      1.00000
     68       0.1383      1.00000
     69       0.2465      1.00000
     70       0.2633      1.00000
     71       0.2975      1.00000
     72       0.3212      1.00000
     73       0.4118      1.00000
     74       0.5367      1.00000
     75       0.6716      1.00000
     76       0.7534      1.00000
     77       0.8832      1.00000
     78       0.9338      1.00000
     79       1.1148      1.00000
     80       1.1300      1.00000
     81       4.1798      0.00000
     82       4.2472      0.00000
     83       4.3894      0.00000
     84       4.4759      0.00000
     85       4.6187      0.00000
     86       4.7035      0.00000
     87       4.7882      0.00000
     88       4.8096      0.00000
     89       4.8237      0.00000
     90       4.8942      0.00000
     91       5.4666      0.00000
     92       5.4848      0.00000
     93       6.2409      0.00000
     94       6.3201      0.00000
     95       6.5554      0.00000
     96       6.5790      0.00000
     97       6.7562      0.00000
     98       6.7740      0.00000
     99       7.8995      0.00000
    100       8.0089      0.00000
    101       8.7154      0.00000
    102       9.6207      0.00000
    103      10.3480      0.00000
    104      10.4123      0.00000
    105      10.6141      0.00000
    106      10.7640      0.00000
    107      10.9903      0.00000
    108      11.0591      0.00000
    109      11.1771      0.00000
    110      11.2783      0.00000
    111      11.3988      0.00000
    112      11.4496      0.00000
    113      11.7721      0.00000
    114      11.7852      0.00000
    115      11.9232      0.00000
    116      12.0905      0.00000

 k-point     6 :       0.5000    0.3333    0.0000
  band No.  band energies     occupation 
      1     -19.0465      1.00000
      2     -19.0465      1.00000
      3     -18.9586      1.00000
      4     -18.9586      1.00000
      5     -16.7235      1.00000
      6     -16.7235      1.00000
      7     -16.7136      1.00000
      8     -16.7136      1.00000
      9     -16.5135      1.00000
     10     -16.5135      1.00000
     11     -16.4809      1.00000
     12     -16.4809      1.00000
     13     -16.4644      1.00000
     14     -16.4644      1.00000
     15     -16.4338      1.00000
     16     -16.4338      1.00000
     17     -14.7211      1.00000
     18     -14.7210      1.00000
     19     -14.2627      1.00000
     20     -14.2627      1.00000
     21      -6.5835      1.00000
     22      -6.5835      1.00000
     23      -6.3237      1.00000
     24      -6.3237      1.00000
     25      -4.6638      1.00000
     26      -4.6638      1.00000
     27      -4.3254      1.00000
     28      -4.3254      1.00000
     29      -4.1439      1.00000
     30      -4.1439      1.00000
     31      -4.0944      1.00000
     32      -4.0944      1.00000
     33      -3.8537      1.00000
     34      -3.8537      1.00000
     35      -3.7706      1.00000
     36      -3.7706      1.00000
     37      -2.3781      1.00000
     38      -2.3781      1.00000
     39      -2.2908      1.00000
     40      -2.2908      1.00000
     41      -2.1938      1.00000
     42      -2.1938      1.00000
     43      -2.0064      1.00000
     44      -2.0064      1.00000
     45      -1.8615      1.00000
     46      -1.8615      1.00000
     47      -1.7274      1.00000
     48      -1.7274      1.00000
     49      -1.4399      1.00000
     50      -1.4399      1.00000
     51      -1.3039      1.00000
     52      -1.3039      1.00000
     53      -0.9957      1.00000
     54      -0.9957      1.00000
     55      -0.8891      1.00000
     56      -0.8891      1.00000
     57      -0.7056      1.00000
     58      -0.7056      1.00000
     59      -0.3505      1.00000
     60      -0.3505      1.00000
     61      -0.1415      1.00000
     62      -0.1415      1.00000
     63      -0.1309      1.00000
     64      -0.1309      1.00000
     65       0.0301      1.00000
     66       0.0301      1.00000
     67       0.1773      1.00000
     68       0.1773      1.00000
     69       0.2684      1.00000
     70       0.2684      1.00000
     71       0.3357      1.00000
     72       0.3358      1.00000
     73       0.4171      1.00000
     74       0.4171      1.00000
     75       0.7562      1.00000
     76       0.7562      1.00000
     77       0.8154      1.00000
     78       0.8154      1.00000
     79       1.0590      1.00000
     80       1.0590      1.00000
     81       4.2720      0.00000
     82       4.2720      0.00000
     83       4.2869      0.00000
     84       4.2869      0.00000
     85       4.5412      0.00000
     86       4.5412      0.00000
     87       4.8055      0.00000
     88       4.8055      0.00000
     89       4.8741      0.00000
     90       4.8741      0.00000
     91       5.4223      0.00000
     92       5.4223      0.00000
     93       6.5686      0.00000
     94       6.5686      0.00000
     95       6.7125      0.00000
     96       6.7125      0.00000
     97       6.9504      0.00000
     98       6.9504      0.00000
     99       8.1338      0.00000
    100       8.1338      0.00000
    101       9.4360      0.00000
    102       9.4360      0.00000
    103      10.1090      0.00000
    104      10.1090      0.00000
    105      10.6252      0.00000
    106      10.6252      0.00000
    107      11.1956      0.00000
    108      11.1956      0.00000
    109      11.3251      0.00000
    110      11.3251      0.00000
    111      11.4107      0.00000
    112      11.4107      0.00000
    113      11.7195      0.00000
    114      11.7195      0.00000
    115      12.0714      0.00000
    116      12.0714      0.00000

 k-point     7 :       0.0000    0.0000    0.3333
  band No.  band energies     occupation 
      1     -19.1628      1.00000
      2     -19.0622      1.00000
      3     -18.9868      1.00000
      4     -18.9530      1.00000
      5     -16.7099      1.00000
      6     -16.6991      1.00000
      7     -16.5801      1.00000
      8     -16.5273      1.00000
      9     -16.5075      1.00000
     10     -16.5032      1.00000
     11     -16.4835      1.00000
     12     -16.4769      1.00000
     13     -16.4616      1.00000
     14     -16.4611      1.00000
     15     -16.4580      1.00000
     16     -16.4433      1.00000
     17     -14.6347      1.00000
     18     -14.6177      1.00000
     19     -14.4035      1.00000
     20     -14.3697      1.00000
     21      -6.9408      1.00000
     22      -6.8136      1.00000
     23      -6.5156      1.00000
     24      -6.3577      1.00000
     25      -4.7073      1.00000
     26      -4.6705      1.00000
     27      -4.4366      1.00000
     28      -4.4070      1.00000
     29      -4.3568      1.00000
     30      -4.2579      1.00000
     31      -4.2172      1.00000
     32      -4.0977      1.00000
     33      -4.0809      1.00000
     34      -4.0427      1.00000
     35      -3.7183      1.00000
     36      -3.6850      1.00000
     37      -2.2780      1.00000
     38      -2.2758      1.00000
     39      -2.2030      1.00000
     40      -2.0665      1.00000
     41      -2.0526      1.00000
     42      -2.0298      1.00000
     43      -2.0057      1.00000
     44      -1.9028      1.00000
     45      -1.7072      1.00000
     46      -1.6615      1.00000
     47      -1.5530      1.00000
     48      -1.4105      1.00000
     49      -1.3614      1.00000
     50      -1.2939      1.00000
     51      -1.1477      1.00000
     52      -1.1317      1.00000
     53      -1.0191      1.00000
     54      -1.0128      1.00000
     55      -1.0013      1.00000
     56      -0.7456      1.00000
     57      -0.7260      1.00000
     58      -0.7137      1.00000
     59      -0.5942      1.00000
     60      -0.4035      1.00000
     61      -0.3426      1.00000
     62      -0.1592      1.00000
     63      -0.1024      1.00000
     64       0.0097      1.00000
     65       0.0162      1.00000
     66       0.0352      1.00000
     67       0.1021      1.00000
     68       0.1480      1.00000
     69       0.2429      1.00000
     70       0.2928      1.00000
     71       0.4744      1.00000
     72       0.5421      1.00000
     73       0.5724      1.00000
     74       0.6809      1.00000
     75       0.7504      1.00000
     76       0.8263      1.00000
     77       0.8534      1.00000
     78       0.8766      1.00000
     79       1.0025      1.00000
     80       1.1837      1.00000
     81       4.1695      0.00000
     82       4.2268      0.00000
     83       4.5466      0.00000
     84       4.6048      0.00000
     85       4.8657      0.00000
     86       4.9147      0.00000
     87       4.9538      0.00000
     88       4.9756      0.00000
     89       5.0011      0.00000
     90       5.1290      0.00000
     91       5.3034      0.00000
     92       5.3572      0.00000
     93       5.7675      0.00000
     94       5.8772      0.00000
     95       6.3268      0.00000
     96       6.4177      0.00000
     97       6.6366      0.00000
     98       6.9666      0.00000
     99       7.2275      0.00000
    100       7.6529      0.00000
    101       8.5086      0.00000
    102       9.5385      0.00000
    103      10.5599      0.00000
    104      10.6303      0.00000
    105      10.6753      0.00000
    106      10.6761      0.00000
    107      11.0824      0.00000
    108      11.1089      0.00000
    109      11.2778      0.00000
    110      11.2781      0.00000
    111      11.3731      0.00000
    112      11.4419      0.00000
    113      11.6980      0.00000
    114      11.7275      0.00000
    115      12.0891      0.00000
    116      12.2310      0.00000

 k-point     8 :       0.2500    0.0000    0.3333
  band No.  band energies     occupation 
      1     -19.1209      1.00000
      2     -19.0282      1.00000
      3     -18.9933      1.00000
      4     -18.9491      1.00000
      5     -16.7277      1.00000
      6     -16.7155      1.00000
      7     -16.6276      1.00000
      8     -16.5650      1.00000
      9     -16.5314      1.00000
     10     -16.5072      1.00000
     11     -16.5024      1.00000
     12     -16.4827      1.00000
     13     -16.4696      1.00000
     14     -16.4661      1.00000
     15     -16.4460      1.00000
     16     -16.4372      1.00000
     17     -14.6275      1.00000
     18     -14.6151      1.00000
     19     -14.3971      1.00000
     20     -14.3732      1.00000
     21      -6.7940      1.00000
     22      -6.6501      1.00000
     23      -6.4818      1.00000
     24      -6.2966      1.00000
     25      -4.6635      1.00000
     26      -4.6300      1.00000
     27      -4.5031      1.00000
     28      -4.3132      1.00000
     29      -4.2922      1.00000
     30      -4.2602      1.00000
     31      -4.2174      1.00000
     32      -4.1096      1.00000
     33      -3.9904      1.00000
     34      -3.9891      1.00000
     35      -3.6433      1.00000
     36      -3.6256      1.00000
     37      -2.3140      1.00000
     38      -2.2708      1.00000
     39      -2.1761      1.00000
     40      -2.0973      1.00000
     41      -2.0896      1.00000
     42      -1.9655      1.00000
     43      -1.9562      1.00000
     44      -1.8357      1.00000
     45      -1.7990      1.00000
     46      -1.6794      1.00000
     47      -1.5289      1.00000
     48      -1.5121      1.00000
     49      -1.4716      1.00000
     50      -1.4244      1.00000
     51      -1.2820      1.00000
     52      -1.2372      1.00000
     53      -1.1327      1.00000
     54      -1.0764      1.00000
     55      -1.0564      1.00000
     56      -0.9287      1.00000
     57      -0.7101      1.00000
     58      -0.6781      1.00000
     59      -0.5432      1.00000
     60      -0.3515      1.00000
     61      -0.3506      1.00000
     62      -0.1805      1.00000
     63      -0.1545      1.00000
     64      -0.0869      1.00000
     65      -0.0519      1.00000
     66       0.0011      1.00000
     67       0.1017      1.00000
     68       0.1096      1.00000
     69       0.3162      1.00000
     70       0.3598      1.00000
     71       0.4626      1.00000
     72       0.5175      1.00000
     73       0.5242      1.00000
     74       0.5566      1.00000
     75       0.6507      1.00000
     76       0.7128      1.00000
     77       0.8605      1.00000
     78       0.8719      1.00000
     79       0.9482      1.00000
     80       1.0641      1.00000
     81       4.1898      0.00000
     82       4.2431      0.00000
     83       4.4605      0.00000
     84       4.5009      0.00000
     85       4.7828      0.00000
     86       4.8610      0.00000
     87       4.8932      0.00000
     88       4.9501      0.00000
     89       5.0255      0.00000
     90       5.1250      0.00000
     91       5.2151      0.00000
     92       5.2551      0.00000
     93       6.1778      0.00000
     94       6.2627      0.00000
     95       6.5640      0.00000
     96       6.5792      0.00000
     97       6.8614      0.00000
     98       7.0007      0.00000
     99       7.4285      0.00000
    100       7.7006      0.00000
    101       8.7975      0.00000
    102       9.7339      0.00000
    103      10.3588      0.00000
    104      10.5315      0.00000
    105      10.7196      0.00000
    106      10.8162      0.00000
    107      10.9503      0.00000
    108      11.1217      0.00000
    109      11.2928      0.00000
    110      11.3166      0.00000
    111      11.3815      0.00000
    112      11.3897      0.00000
    113      11.7062      0.00000
    114      11.8691      0.00000
    115      12.1093      0.00000
    116      12.1781      0.00000

 k-point     9 :       0.5000    0.0000    0.3333
  band No.  band energies     occupation 
      1     -19.0391      1.00000
      2     -19.0391      1.00000
      3     -18.9693      1.00000
      4     -18.9693      1.00000
      5     -16.7076      1.00000
      6     -16.7076      1.00000
      7     -16.6934      1.00000
      8     -16.6934      1.00000
      9     -16.5216      1.00000
     10     -16.5216      1.00000
     11     -16.4946      1.00000
     12     -16.4946      1.00000
     13     -16.4609      1.00000
     14     -16.4609      1.00000
     15     -16.4447      1.00000
     16     -16.4447      1.00000
     17     -14.6166      1.00000
     18     -14.6166      1.00000
     19     -14.3838      1.00000
     20     -14.3838      1.00000
     21      -6.5506      1.00000
     22      -6.5506      1.00000
     23      -6.3649      1.00000
     24      -6.3649      1.00000
     25      -4.6025      1.00000
     26      -4.6025      1.00000
     27      -4.4418      1.00000
     28      -4.4418      1.00000
     29      -4.1821      1.00000
     30      -4.1821      1.00000
     31      -4.1169      1.00000
     32      -4.1169      1.00000
     33      -3.7672      1.00000
     34      -3.7672      1.00000
     35      -3.7512      1.00000
     36      -3.7512      1.00000
     37      -2.2658      1.00000
     38      -2.2658      1.00000
     39      -2.2187      1.00000
     40      -2.2187      1.00000
     41      -2.0415      1.00000
     42      -2.0415      1.00000
     43      -1.8388      1.00000
     44      -1.8388      1.00000
     45      -1.8211      1.00000
     46      -1.8211      1.00000
     47      -1.6087      1.00000
     48      -1.6087      1.00000
     49      -1.4741      1.00000
     50      -1.4741      1.00000
     51      -1.3024      1.00000
     52      -1.3024      1.00000
     53      -1.1582      1.00000
     54      -1.1582      1.00000
     55      -0.9868      1.00000
     56      -0.9868      1.00000
     57      -0.9609      1.00000
     58      -0.9609      1.00000
     59      -0.5657      1.00000
     60      -0.5657      1.00000
     61      -0.3091      1.00000
     62      -0.3091      1.00000
     63      -0.1267      1.00000
     64      -0.1267      1.00000
     65       0.0894      1.00000
     66       0.0894      1.00000
     67       0.2072      1.00000
     68       0.2072      1.00000
     69       0.3027      1.00000
     70       0.3027      1.00000
     71       0.3504      1.00000
     72       0.3504      1.00000
     73       0.6138      1.00000
     74       0.6138      1.00000
     75       0.7384      1.00000
     76       0.7384      1.00000
     77       0.7580      1.00000
     78       0.7580      1.00000
     79       0.8934      1.00000
     80       0.8934      1.00000
     81       4.3062      0.00000
     82       4.3062      0.00000
     83       4.3261      0.00000
     84       4.3261      0.00000
     85       4.7008      0.00000
     86       4.7008      0.00000
     87       4.9309      0.00000
     88       4.9309      0.00000
     89       5.0916      0.00000
     90       5.0916      0.00000
     91       5.1587      0.00000
     92       5.1587      0.00000
     93       6.5745      0.00000
     94       6.5745      0.00000
     95       6.6712      0.00000
     96       6.6712      0.00000
     97       7.1022      0.00000
     98       7.1022      0.00000
     99       7.7393      0.00000
    100       7.7393      0.00000
    101       9.5641      0.00000
    102       9.5641      0.00000
    103      10.1727      0.00000
    104      10.1727      0.00000
    105      10.8628      0.00000
    106      10.8628      0.00000
    107      11.0097      0.00000
    108      11.0097      0.00000
    109      11.2764      0.00000
    110      11.2764      0.00000
    111      11.3986      0.00000
    112      11.3986      0.00000
    113      11.9685      0.00000
    114      11.9685      0.00000
    115      12.0588      0.00000
    116      12.0588      0.00000

 k-point    10 :       0.0000    0.3333    0.3333
  band No.  band energies     occupation 
      1     -19.1315      1.00000
      2     -19.0782      1.00000
      3     -18.9840      1.00000
      4     -18.9681      1.00000
      5     -16.7258      1.00000
      6     -16.6918      1.00000
      7     -16.6003      1.00000
      8     -16.5703      1.00000
      9     -16.5179      1.00000
     10     -16.4981      1.00000
     11     -16.4809      1.00000
     12     -16.4715      1.00000
     13     -16.4501      1.00000
     14     -16.4464      1.00000
     15     -16.4438      1.00000
     16     -16.4265      1.00000
     17     -14.6273      1.00000
     18     -14.6186      1.00000
     19     -14.3930      1.00000
     20     -14.3761      1.00000
     21      -6.8462      1.00000
     22      -6.7231      1.00000
     23      -6.6019      1.00000
     24      -6.4988      1.00000
     25      -4.6921      1.00000
     26      -4.6621      1.00000
     27      -4.4081      1.00000
     28      -4.3214      1.00000
     29      -4.2924      1.00000
     30      -4.2127      1.00000
     31      -4.1753      1.00000
     32      -4.1730      1.00000
     33      -4.0029      1.00000
     34      -3.9728      1.00000
     35      -3.9111      1.00000
     36      -3.8412      1.00000
     37      -2.3270      1.00000
     38      -2.2191      1.00000
     39      -2.1902      1.00000
     40      -2.1431      1.00000
     41      -2.1007      1.00000
     42      -2.0330      1.00000
     43      -1.8532      1.00000
     44      -1.7441      1.00000
     45      -1.7419      1.00000
     46      -1.6038      1.00000
     47      -1.5294      1.00000
     48      -1.4966      1.00000
     49      -1.3803      1.00000
     50      -1.3524      1.00000
     51      -1.3314      1.00000
     52      -1.2187      1.00000
     53      -1.1559      1.00000
     54      -0.9214      1.00000
     55      -0.8209      1.00000
     56      -0.7552      1.00000
     57      -0.7076      1.00000
     58      -0.7022      1.00000
     59      -0.4713      1.00000
     60      -0.4708      1.00000
     61      -0.3599      1.00000
     62      -0.2736      1.00000
     63      -0.1136      1.00000
     64      -0.0828      1.00000
     65       0.0072      1.00000
     66       0.0347      1.00000
     67       0.2080      1.00000
     68       0.2538      1.00000
     69       0.2551      1.00000
     70       0.3052      1.00000
     71       0.4841      1.00000
     72       0.5610      1.00000
     73       0.5784      1.00000
     74       0.6127      1.00000
     75       0.7014      1.00000
     76       0.7369      1.00000
     77       0.8506      1.00000
     78       0.8581      1.00000
     79       1.1533      1.00000
     80       1.2251      1.00000
     81       4.1954      0.00000
     82       4.2338      0.00000
     83       4.5423      0.00000
     84       4.5861      0.00000
     85       4.8655      0.00000
     86       4.9029      0.00000
     87       4.9308      0.00000
     88       4.9763      0.00000
     89       5.0110      0.00000
     90       5.0809      0.00000
     91       5.3264      0.00000
     92       5.3526      0.00000
     93       5.8758      0.00000
     94       5.9270      0.00000
     95       6.3073      0.00000
     96       6.3611      0.00000
     97       6.7199      0.00000
     98       6.8753      0.00000
     99       7.3435      0.00000
    100       7.5485      0.00000
    101       8.8769      0.00000
    102       9.5027      0.00000
    103      10.3649      0.00000
    104      10.4963      0.00000
    105      10.6902      0.00000
    106      10.7168      0.00000
    107      11.0372      0.00000
    108      11.1362      0.00000
    109      11.2836      0.00000
    110      11.3279      0.00000
    111      11.3491      0.00000
    112      11.4248      0.00000
    113      11.4475      0.00000
    114      11.7151      0.00000
    115      11.9569      0.00000
    116      12.1086      0.00000

 k-point    11 :       0.2500    0.3333    0.3333
  band No.  band energies     occupation 
      1     -19.0932      1.00000
      2     -19.0455      1.00000
      3     -18.9840      1.00000
      4     -18.9639      1.00000
      5     -16.7456      1.00000
      6     -16.7198      1.00000
      7     -16.6452      1.00000
      8     -16.6207      1.00000
      9     -16.5167      1.00000
     10     -16.4997      1.00000
     11     -16.4894      1.00000
     12     -16.4780      1.00000
     13     -16.4617      1.00000
     14     -16.4591      1.00000
     15     -16.4334      1.00000
     16     -16.4223      1.00000
     17     -14.6205      1.00000
     18     -14.6140      1.00000
     19     -14.3898      1.00000
     20     -14.3778      1.00000
     21      -6.7167      1.00000
     22      -6.5929      1.00000
     23      -6.5352      1.00000
     24      -6.4229      1.00000
     25      -4.6417      1.00000
     26      -4.6343      1.00000
     27      -4.3748      1.00000
     28      -4.3040      1.00000
     29      -4.2455      1.00000
     30      -4.2331      1.00000
     31      -4.1897      1.00000
     32      -4.0874      1.00000
     33      -4.0069      1.00000
     34      -3.9131      1.00000
     35      -3.7661      1.00000
     36      -3.7548      1.00000
     37      -2.3251      1.00000
     38      -2.2391      1.00000
     39      -2.1924      1.00000
     40      -2.1402      1.00000
     41      -2.0556      1.00000
     42      -2.0151      1.00000
     43      -1.9815      1.00000
     44      -1.8567      1.00000
     45      -1.7989      1.00000
     46      -1.7104      1.00000
     47      -1.5661      1.00000
     48      -1.5522      1.00000
     49      -1.4423      1.00000
     50      -1.3651      1.00000
     51      -1.3433      1.00000
     52      -1.3180      1.00000
     53      -1.2009      1.00000
     54      -1.1774      1.00000
     55      -0.9300      1.00000
     56      -0.8595      1.00000
     57      -0.7100      1.00000
     58      -0.6576      1.00000
     59      -0.5363      1.00000
     60      -0.4472      1.00000
     61      -0.2330      1.00000
     62      -0.1659      1.00000
     63      -0.1409      1.00000
     64      -0.0323      1.00000
     65       0.0187      1.00000
     66       0.0510      1.00000
     67       0.0803      1.00000
     68       0.1815      1.00000
     69       0.2601      1.00000
     70       0.3354      1.00000
     71       0.3808      1.00000
     72       0.4502      1.00000
     73       0.5509      1.00000
     74       0.5578      1.00000
     75       0.6418      1.00000
     76       0.7009      1.00000
     77       0.8232      1.00000
     78       0.8980      1.00000
     79       1.0561      1.00000
     80       1.0950      1.00000
     81       4.2109      0.00000
     82       4.2471      0.00000
     83       4.4512      0.00000
     84       4.4918      0.00000
     85       4.7881      0.00000
     86       4.8214      0.00000
     87       4.9075      0.00000
     88       4.9283      0.00000
     89       5.0286      0.00000
     90       5.0763      0.00000
     91       5.2422      0.00000
     92       5.2630      0.00000
     93       6.2646      0.00000
     94       6.3025      0.00000
     95       6.5675      0.00000
     96       6.5848      0.00000
     97       6.8690      0.00000
     98       6.9448      0.00000
     99       7.4898      0.00000
    100       7.6240      0.00000
    101       9.1200      0.00000
    102       9.6891      0.00000
    103      10.2863      0.00000
    104      10.4339      0.00000
    105      10.6484      0.00000
    106      10.7727      0.00000
    107      10.9443      0.00000
    108      11.0201      0.00000
    109      11.2228      0.00000
    110      11.3126      0.00000
    111      11.4049      0.00000
    112      11.4773      0.00000
    113      11.6200      0.00000
    114      11.8417      0.00000
    115      12.0238      0.00000
    116      12.0914      0.00000

 k-point    12 :       0.5000    0.3333    0.3333
  band No.  band energies     occupation 
      1     -19.0245      1.00000
      2     -19.0245      1.00000
      3     -18.9805      1.00000
      4     -18.9805      1.00000
      5     -16.7292      1.00000
      6     -16.7292      1.00000
      7     -16.7172      1.00000
      8     -16.7172      1.00000
      9     -16.5087      1.00000
     10     -16.5087      1.00000
     11     -16.4844      1.00000
     12     -16.4844      1.00000
     13     -16.4570      1.00000
     14     -16.4570      1.00000
     15     -16.4335      1.00000
     16     -16.4335      1.00000
     17     -14.6119      1.00000
     18     -14.6119      1.00000
     19     -14.3831      1.00000
     20     -14.3831      1.00000
     21      -6.5312      1.00000
     22      -6.5312      1.00000
     23      -6.4045      1.00000
     24      -6.4045      1.00000
     25      -4.5649      1.00000
     26      -4.5649      1.00000
     27      -4.3978      1.00000
     28      -4.3978      1.00000
     29      -4.1204      1.00000
     30      -4.1204      1.00000
     31      -4.0969      1.00000
     32      -4.0969      1.00000
     33      -3.8465      1.00000
     34      -3.8465      1.00000
     35      -3.7440      1.00000
     36      -3.7440      1.00000
     37      -2.2920      1.00000
     38      -2.2920      1.00000
     39      -2.2294      1.00000
     40      -2.2294      1.00000
     41      -2.0566      1.00000
     42      -2.0566      1.00000
     43      -1.9199      1.00000
     44      -1.9199      1.00000
     45      -1.8329      1.00000
     46      -1.8329      1.00000
     47      -1.6510      1.00000
     48      -1.6510      1.00000
     49      -1.5266      1.00000
     50      -1.5266      1.00000
     51      -1.3573      1.00000
     52      -1.3573      1.00000
     53      -1.2519      1.00000
     54      -1.2519      1.00000
     55      -1.0152      1.00000
     56      -1.0152      1.00000
     57      -0.7228      1.00000
     58      -0.7228      1.00000
     59      -0.6090      1.00000
     60      -0.6090      1.00000
     61      -0.2078      1.00000
     62      -0.2078      1.00000
     63      -0.0592      1.00000
     64      -0.0592      1.00000
     65       0.1331      1.00000
     66       0.1331      1.00000
     67       0.2198      1.00000
     68       0.2198      1.00000
     69       0.3115      1.00000
     70       0.3115      1.00000
     71       0.3586      1.00000
     72       0.3586      1.00000
     73       0.5186      1.00000
     74       0.5186      1.00000
     75       0.6415      1.00000
     76       0.6415      1.00000
     77       0.8254      1.00000
     78       0.8254      1.00000
     79       0.9459      1.00000
     80       0.9459      1.00000
     81       4.3016      0.00000
     82       4.3016      0.00000
     83       4.3353      0.00000
     84       4.3353      0.00000
     85       4.6924      0.00000
     86       4.6924      0.00000
     87       4.9213      0.00000
     88       4.9213      0.00000
     89       5.0485      0.00000
     90       5.0485      0.00000
     91       5.1882      0.00000
     92       5.1882      0.00000
     93       6.6117      0.00000
     94       6.6117      0.00000
     95       6.6953      0.00000
     96       6.6953      0.00000
     97       7.0956      0.00000
     98       7.0956      0.00000
     99       7.7251      0.00000
    100       7.7251      0.00000
    101       9.7410      0.00000
    102       9.7410      0.00000
    103      10.1174      0.00000
    104      10.1174      0.00000
    105      10.6549      0.00000
    106      10.6549      0.00000
    107      10.9154      0.00000
    108      10.9154      0.00000
    109      11.3469      0.00000
    110      11.3469      0.00000
    111      11.4447      0.00000
    112      11.4447      0.00000
    113      11.9653      0.00000
    114      11.9653      0.00000
    115      12.1154      0.00000
    116      12.1154      0.00000


--------------------------------------------------------------------------------------------------------


 soft charge-density along one line, spin component           1
         0         1         2         3         4         5         6         7         8         9
 total charge-density along one line
 
 soft charge-density along one line, spin component           2
         0         1         2         3         4         5         6         7         8         9
 total charge-density along one line
 
 pseudopotential strength for first ion, spin component:           1
  1.175   5.254   0.000   0.000   0.000
  5.254  22.465   0.000   0.000   0.000
  0.000   0.000  -0.344  -0.000   0.000
  0.000   0.000  -0.000  -0.345  -0.001
  0.000   0.000   0.000  -0.001  -0.344
 pseudopotential strength for first ion, spin component:           2
  1.175   5.254   0.000   0.000   0.000
  5.254  22.465   0.000   0.000   0.000
  0.000   0.000  -0.344  -0.000   0.000
  0.000   0.000  -0.000  -0.345  -0.001
  0.000   0.000   0.000  -0.001  -0.344
 total augmentation occupancy for first ion, spin component:           1
  0.807  -0.022   0.000   0.000   0.000
 -0.022   0.001   0.000   0.000   0.000
  0.000   0.000   0.091  -0.015  -0.008
  0.000   0.000  -0.015   0.062  -0.006
  0.000   0.000  -0.008  -0.006   0.073
 total augmentation occupancy for first ion, spin component:           2
  0.000  -0.000   0.000   0.000   0.000
 -0.000   0.000   0.000   0.000   0.000
  0.000   0.000   0.000  -0.000   0.000
  0.000   0.000  -0.000  -0.000   0.000
  0.000   0.000   0.000   0.000  -0.000


------------------------ aborting loop because EDIFF is reached ----------------------------------------





 total charge

# of ion       s       p       d       tot
------------------------------------------
    1        0.078   0.163   0.000   0.241
    2        0.078   0.163   0.000   0.241
    3        0.078   0.163   0.000   0.241
    4        0.078   0.163   0.000   0.241
    5        0.546   1.012   2.655   4.213
    6        0.546   1.012   2.655   4.213
    7        0.546   1.012   2.655   4.213
    8        0.546   1.012   2.655   4.213
    9        0.907   1.501   0.000   2.408
   10        0.907   1.501   0.000   2.408
   11        0.907   1.501   0.000   2.408
   12        0.907   1.501   0.000   2.408
   13        1.561   3.616   0.000   5.177
   14        1.561   3.616   0.000   5.177
   15        1.561   3.616   0.000   5.177
   16        1.561   3.616   0.000   5.177
   17        1.561   3.616   0.000   5.177
   18        1.561   3.616   0.000   5.177
   19        1.561   3.616   0.000   5.177
   20        1.561   3.616   0.000   5.177
   21        1.574   3.443   0.000   5.016
   22        1.574   3.443   0.000   5.016
   23        1.574   3.443   0.000   5.016
   24        1.574   3.443   0.000   5.016
   25        1.560   3.603   0.000   5.163
   26        1.560   3.603   0.000   5.163
   27        1.560   3.603   0.000   5.163
   28        1.560   3.603   0.000   5.163
   29        1.564   3.598   0.000   5.162
   30        1.564   3.598   0.000   5.162
   31        1.564   3.598   0.000   5.162
   32        1.564   3.598   0.000   5.162
--------------------------------------------------
tot         37.404  82.204  10.618 130.227



 magnetization (x)

# of ion       s       p       d       tot
------------------------------------------
    1        0.000   0.000   0.000   0.000
    2        0.000   0.000   0.000   0.000
    3        0.000   0.000   0.000   0.000
    4        0.000   0.000   0.000   0.000
    5       -0.000   0.000  -0.000  -0.000
    6       -0.000   0.000  -0.000  -0.000
    7       -0.000   0.000  -0.000  -0.000
    8       -0.000   0.000  -0.000  -0.000
    9        0.000   0.000   0.000   0.000
   10        0.000   0.000   0.000   0.000
   11        0.000   0.000   0.000   0.000
   12        0.000   0.000   0.000   0.000
   13        0.000  -0.000   0.000  -0.000
   14        0.000  -0.000   0.000  -0.000
   15        0.000  -0.000   0.000  -0.000
   16        0.000  -0.000   0.000  -0.000
   17        0.000  -0.000   0.000  -0.000
   18        0.000  -0.000   0.000  -0.000
   19        0.000  -0.000   0.000  -0.000
   20        0.000  -0.000   0.000  -0.000
   21       -0.000   0.000   0.000   0.000
   22       -0.000   0.000   0.000   0.000
   23       -0.000   0.000   0.000   0.000
   24       -0.000   0.000   0.000   0.000
   25        0.000  -0.000   0.000  -0.000
   26        0.000  -0.000   0.000  -0.000
   27        0.000  -0.000   0.000  -0.000
   28        0.000  -0.000   0.000  -0.000
   29       -0.000  -0.000   0.000  -0.000
   30       -0.000  -0.000   0.000  -0.000
   31       -0.000  -0.000   0.000  -0.000
   32       -0.000  -0.000   0.000  -0.000
--------------------------------------------------
tot         -0.000  -0.000  -0.000  -0.000
 
    CHARGE:  cpu time      0.1164: real time      0.1167
    FORLOC:  cpu time      0.0028: real time      0.0028
    FORNL :  cpu time      0.5906: real time      0.5931
    STRESS:  cpu time      0.7560: real time      0.7585
    FORCOR:  cpu time      0.0347: real time      0.0349
    FORHAR:  cpu time      0.0061: real time      0.0061
    MIXING:  cpu time      0.0008: real time      0.0008
    OFIELD:  cpu time      0.0001: real time      0.0001

 ---------------------------------------------------------------------------------------------

         DFTD3 V3.0 Rev 1        
 Edisp (eV)   -4.78703

 E6    (eV) :    -2.3248
 E8    (eV) :    -2.4623
 % E8        : 51.44
    FORVDW:  cpu time      0.2619: real time      0.2632

  FORCE on cell =-STRESS in cart. coord.  units (eV):
  Direction    XX          YY          ZZ          XY          YZ          ZX
  --------------------------------------------------------------------------------------
  Alpha Z   419.65870   419.65870   419.65870
  Ewald   -2319.65550 -2300.85940 -2392.05207     0.00000    -0.00004    -0.00000
  Hartree  1070.52921  1054.70962  1014.08689    -0.00000     0.00000    -0.00000
  E(xc)    -752.26760  -752.45914  -756.78373    -0.00000     0.00000    -0.00000
  Local   -1239.79822 -1237.19000 -1117.44090    -0.00000     0.00004     0.00000
  n-local  -283.79901  -286.51286  -294.03935     0.00096     0.00562     0.00124
  augment   118.61336   118.71467   122.43382    -0.00000    -0.00000     0.00000
  Kinetic  2991.01164  2988.42707  3008.11480    -0.09286    -0.03969     0.01862
  Fock        0.00000     0.00000     0.00000     0.00000     0.00000     0.00000
  vdW        -4.28718    -4.48645    -3.98974    -0.00000    -0.00000    -0.00000
  -------------------------------------------------------------------------------------
  Total       0.00540     0.00220    -0.01158     0.00000     0.00000     0.00000
  in kB       0.02502     0.01022    -0.05370     0.00000     0.00000     0.00000
  external pressure =       -0.01 kB  Pullay stress =        0.00 kB


 VOLUME and BASIS-vectors are now :
 -----------------------------------------------------------------------------
  energy-cutoff  :      600.00
  volume of cell :      345.54
      direct lattice vectors                 reciprocal lattice vectors
     6.430392552 -0.000000000  0.000000000     0.155511501  0.000000000  0.000000000
    -0.000000000  7.266434241  0.000000000     0.000000000  0.137619081  0.000000000
     0.000000000  0.000000000  7.394923035     0.000000000  0.000000000  0.135227912

  length of vectors
     6.430392552  7.266434241  7.394923035     0.155511501  0.137619081  0.135227912


 FORCES acting on ions
    electron-ion (+dipol)            ewald-force                    non-local-force                 convergence-correction
 -----------------------------------------------------------------------------------------------
   0.273E-06 0.173E-06 0.118E-06   -.169E-05 -.584E-06 -.275E-05   -.509E-23 -.537E-23 0.108E-23   0.258E-12 -.675E-11 0.680E-11
   0.190E-06 0.265E-06 -.185E-06   -.186E-05 -.519E-05 0.199E-05   0.404E-23 -.477E-24 0.893E-24   -.713E-12 0.586E-11 -.649E-11
   -.159E-06 0.315E-06 -.167E-06   0.157E-05 -.564E-05 0.183E-05   -.410E-23 -.463E-23 0.120E-23   0.715E-12 0.576E-11 -.649E-11
   -.242E-06 0.223E-06 0.999E-07   0.141E-05 -.103E-05 -.259E-05   0.434E-23 0.207E-23 -.227E-25   -.256E-12 -.684E-11 0.680E-11
   -.742E-06 0.431E+01 -.514E+01   0.672E-05 -.449E+01 0.615E+01   0.738E-21 0.161E+00 -.104E+01   0.189E-11 0.160E-05 -.183E-05
   0.242E-07 -.431E+01 0.514E+01   -.222E-06 0.449E+01 -.615E+01   0.168E-19 -.161E+00 0.104E+01   -.872E-12 -.160E-05 0.183E-05
   0.242E-07 0.431E+01 0.514E+01   -.222E-06 -.449E+01 -.615E+01   -.247E-19 0.161E+00 0.104E+01   -.820E-12 0.160E-05 0.183E-05
   -.742E-06 -.431E+01 -.514E+01   0.672E-05 0.449E+01 0.615E+01   0.180E-19 -.161E+00 -.104E+01   0.188E-11 -.160E-05 -.183E-05
   -.885E-06 0.439E+01 0.688E+01   0.833E-05 -.424E+01 -.690E+01   -.641E-18 -.119E+00 0.693E-02   -.279E-11 0.810E-06 0.121E-05
   -.538E-07 -.439E+01 -.688E+01   0.491E-06 0.424E+01 0.690E+01   -.237E-18 0.119E+00 -.693E-02   0.129E-11 -.810E-06 -.121E-05
   -.538E-07 0.439E+01 -.688E+01   0.491E-06 -.424E+01 0.690E+01   -.960E-19 -.119E+00 -.693E-02   0.124E-11 0.810E-06 -.121E-05
   -.885E-06 -.439E+01 0.688E+01   0.833E-05 0.424E+01 -.690E+01   -.795E-19 0.119E+00 0.693E-02   -.278E-11 -.810E-06 0.121E-05
   -.600E+02 0.953E+02 -.172E+01   0.785E+02 -.119E+03 0.215E+01   -.185E+02 0.234E+02 -.440E+00   -.143E-04 0.164E-04 0.139E-05
   0.600E+02 -.953E+02 -.172E+01   -.785E+02 0.119E+03 0.215E+01   0.185E+02 -.234E+02 -.440E+00   0.143E-04 -.164E-04 0.139E-05
   0.600E+02 0.953E+02 0.172E+01   -.785E+02 -.119E+03 -.215E+01   0.185E+02 0.234E+02 0.440E+00   0.143E-04 0.164E-04 -.139E-05
   -.600E+02 -.953E+02 0.172E+01   0.785E+02 0.119E+03 -.215E+01   -.185E+02 -.234E+02 0.440E+00   -.143E-04 -.164E-04 -.139E-05
   0.600E+02 -.953E+02 0.172E+01   -.785E+02 0.119E+03 -.215E+01   0.185E+02 -.234E+02 0.440E+00   0.143E-04 -.164E-04 -.139E-05
   0.600E+02 0.953E+02 -.172E+01   -.785E+02 -.119E+03 0.215E+01   0.185E+02 0.234E+02 -.440E+00   0.143E-04 0.164E-04 0.139E-05
   -.600E+02 -.953E+02 -.172E+01   0.785E+02 0.119E+03 0.215E+01   -.185E+02 -.234E+02 -.440E+00   -.143E-04 -.164E-04 0.139E-05
   -.600E+02 0.953E+02 0.172E+01   0.785E+02 -.119E+03 -.215E+01   -.185E+02 0.234E+02 0.440E+00   -.143E-04 0.164E-04 -.139E-05
   -.350E-06 0.491E+02 0.156E+02   0.318E-05 -.545E+02 -.245E+02   0.840E-19 0.545E+01 0.893E+01   0.330E-11 0.104E-04 0.109E-04
   0.393E-07 -.491E+02 -.156E+02   -.360E-06 0.545E+02 0.245E+02   -.696E-19 -.545E+01 -.893E+01   -.167E-11 -.104E-04 -.109E-04
   0.393E-07 0.491E+02 -.156E+02   -.360E-06 -.545E+02 0.245E+02   0.267E-19 0.545E+01 -.893E+01   -.169E-11 0.104E-04 -.109E-04
   -.350E-06 -.491E+02 0.156E+02   0.318E-05 0.545E+02 -.245E+02   0.695E-19 -.545E+01 0.893E+01   0.339E-11 -.104E-04 0.109E-04
   -.220E-06 -.279E+02 -.108E+03   0.199E-05 0.396E+02 0.135E+03   0.249E-19 -.117E+02 -.275E+02   0.213E-11 -.127E-04 -.240E-04
   0.346E-07 0.279E+02 0.108E+03   -.324E-06 -.396E+02 -.135E+03   0.149E-19 0.117E+02 0.275E+02   -.284E-11 0.127E-04 0.240E-04
   0.346E-07 -.279E+02 0.108E+03   -.324E-06 0.396E+02 -.135E+03   0.620E-19 -.117E+02 0.275E+02   -.288E-11 -.127E-04 0.240E-04
   -.220E-06 0.279E+02 -.108E+03   0.199E-05 -.396E+02 0.135E+03   0.133E-19 0.117E+02 -.275E+02   0.220E-11 0.127E-04 -.240E-04
   0.333E-07 -.184E+02 -.109E+03   -.313E-06 0.247E+02 0.138E+03   -.439E-19 -.627E+01 -.283E+02   -.296E-11 -.826E-05 -.172E-04
   -.177E-06 0.184E+02 0.109E+03   0.162E-05 -.247E+02 -.138E+03   0.731E-19 0.627E+01 0.283E+02   0.270E-11 0.826E-05 0.172E-04
   -.177E-06 -.184E+02 0.109E+03   0.162E-05 0.247E+02 -.138E+03   0.324E-19 -.627E+01 0.283E+02   0.262E-11 -.826E-05 0.172E-04
   0.333E-07 0.184E+02 -.109E+03   -.313E-06 -.247E+02 0.138E+03   0.338E-21 0.627E+01 -.283E+02   -.291E-11 0.826E-05 -.172E-04
 -----------------------------------------------------------------------------------------------
   -.157E-03 0.130E-03 0.857E-04   0.784E-13 0.284E-13 0.284E-13   0.288E-18 -.266E-14 -.355E-14   0.537E-12 0.103E-10 -.160E-12
 
 
 POSITION                                       TOTAL-FORCE (eV/Angst)
 -----------------------------------------------------------------------------------
     -0.00000     -0.00000     -0.00000         0.000000     -0.000000     -0.000000
      3.21520      3.63322      3.69746         0.000000     -0.000000     -0.000000
     -0.00000      3.63322      3.69746         0.000000     -0.000000     -0.000000
      3.21520     -0.00000     -0.00000         0.000000     -0.000000     -0.000000
      4.82279      2.02109      6.20109         0.000000     -0.000577     -0.000110
      1.60760      5.24534      1.19384         0.000000      0.000577      0.000110
      1.60760      5.65431      4.89130         0.000000     -0.000577      0.000110
      4.82279      1.61213      2.50363         0.000000      0.000577     -0.000110
      1.60760      2.68623      6.46163         0.000000     -0.000017     -0.000408
      4.82279      4.58020      0.93329         0.000000      0.000017      0.000408
      4.82279      6.31945      4.63075         0.000000     -0.000017      0.000408
      1.60760      0.94699      2.76417         0.000000      0.000017     -0.000408
      6.06490      5.40578      4.64352        -0.000084     -0.000929      0.000092
      3.58069      5.49387      0.94606         0.000084      0.000929      0.000092
      0.36549      1.77256      6.44886         0.000084     -0.000929     -0.000092
      2.84970      1.86065      2.75140        -0.000084      0.000929     -0.000092
      0.36549      1.86065      2.75140         0.000084      0.000929     -0.000092
      3.58069      5.40578      4.64352         0.000084     -0.000929      0.000092
      6.06490      5.49387      0.94606        -0.000084      0.000929      0.000092
      2.84970      1.77256      6.44886        -0.000084     -0.000929     -0.000092
      4.82279      1.13462      0.80527         0.000000     -0.000533     -0.000219
      1.60760      6.13182      6.58966         0.000000      0.000533      0.000219
      1.60760      4.76783      2.89219         0.000000     -0.000533      0.000219
      4.82279      2.49860      4.50273         0.000000      0.000533     -0.000219
      4.82279      7.24040      5.88069         0.000000     -0.000702      0.000595
      1.60760      0.02603      1.51424         0.000000      0.000702     -0.000595
      1.60760      3.60718      5.21170         0.000000     -0.000702     -0.000595
      4.82279      3.65925      2.18323         0.000000      0.000702      0.000595
      1.60760      3.51688      0.37131         0.000000     -0.000663      0.000295
      4.82279      3.74956      7.02361         0.000000      0.000663     -0.000295
      4.82279      7.15009      3.32615         0.000000     -0.000663     -0.000295
      1.60760      0.11634      4.06878         0.000000      0.000663      0.000295
 -----------------------------------------------------------------------------------
    total drift:                               -0.000157      0.000130      0.000086


--------------------------------------------------------------------------------------------------------



  FREE ENERGIE OF THE ION-ELECTRON SYSTEM (eV)
  ---------------------------------------------------
  free  energy   TOTEN  =      -246.43122414 eV

  energy  without entropy=     -246.43122414  energy(sigma->0) =     -246.43122414
 
 d Force = 0.2002698E-06[ 0.126E-06, 0.275E-06]  d Energy = 0.3011904E-06-0.101E-06
 d Force = 0.3140825E-01[ 0.314E-01, 0.314E-01]  d Ewald  = 0.6899760E-01-0.376E-01


--------------------------------------------------------------------------------------------------------


    POTLOK:  cpu time      0.0444: real time      0.0447


--------------------------------------------------------------------------------------------------------


 stress matrix after NEB project (eV)
      0.00540     -0.00000      0.00000
      0.00000      0.00220      0.00000
      0.00000      0.00000     -0.01158
  FORCES: max atom, RMS     0.000937    0.000705
  FORCE total and by dimension    0.003987    0.000929
  Stress total and by dimension    0.012965    0.011580


--------------------------------------------------------------------------------------------------------


  
 reached required accuracy - stopping structural energy minimisation
     LOOP+:  cpu time     24.5118: real time     24.6623
    4ORBIT:  cpu time      0.0000: real time      0.0000



 total charge

# of ion       s       p       d       tot
------------------------------------------
    1        0.078   0.163   0.000   0.241
    2        0.078   0.163   0.000   0.241
    3        0.078   0.163   0.000   0.241
    4        0.078   0.163   0.000   0.241
    5        0.546   1.012   2.655   4.213
    6        0.546   1.012   2.655   4.213
    7        0.546   1.012   2.655   4.213
    8        0.546   1.012   2.655   4.213
    9        0.907   1.501   0.000   2.408
   10        0.907   1.501   0.000   2.408
   11        0.907   1.501   0.000   2.408
   12        0.907   1.501   0.000   2.408
   13        1.561   3.616   0.000   5.177
   14        1.561   3.616   0.000   5.177
   15        1.561   3.616   0.000   5.177
   16        1.561   3.616   0.000   5.177
   17        1.561   3.616   0.000   5.177
   18        1.561   3.616   0.000   5.177
   19        1.561   3.616   0.000   5.177
   20        1.561   3.616   0.000   5.177
   21        1.574   3.443   0.000   5.016
   22        1.574   3.443   0.000   5.016
   23        1.574   3.443   0.000   5.016
   24        1.574   3.443   0.000   5.016
   25        1.560   3.603   0.000   5.163
   26        1.560   3.603   0.000   5.163
   27        1.560   3.603   0.000   5.163
   28        1.560   3.603   0.000   5.163
   29        1.564   3.598   0.000   5.162
   30        1.564   3.598   0.000   5.162
   31        1.564   3.598   0.000   5.162
   32        1.564   3.598   0.000   5.162
--------------------------------------------------
tot         37.404  82.204  10.618 130.227



 magnetization (x)

# of ion       s       p       d       tot
------------------------------------------
    1        0.000   0.000   0.000   0.000
    2        0.000   0.000   0.000   0.000
    3        0.000   0.000   0.000   0.000
    4        0.000   0.000   0.000   0.000
    5       -0.000   0.000  -0.000  -0.000
    6       -0.000   0.000  -0.000  -0.000
    7       -0.000   0.000  -0.000  -0.000
    8       -0.000   0.000  -0.000  -0.000
    9        0.000   0.000   0.000   0.000
   10        0.000   0.000   0.000   0.000
   11        0.000   0.000   0.000   0.000
   12        0.000   0.000   0.000   0.000
   13        0.000  -0.000   0.000  -0.000
   14        0.000  -0.000   0.000  -0.000
   15        0.000  -0.000   0.000  -0.000
   16        0.000  -0.000   0.000  -0.000
   17        0.000  -0.000   0.000  -0.000
   18        0.000  -0.000   0.000  -0.000
   19        0.000  -0.000   0.000  -0.000
   20        0.000  -0.000   0.000  -0.000
   21       -0.000   0.000   0.000   0.000
   22       -0.000   0.000   0.000   0.000
   23       -0.000   0.000   0.000   0.000
   24       -0.000   0.000   0.000   0.000
   25        0.000  -0.000   0.000  -0.000
   26        0.000  -0.000   0.000  -0.000
   27        0.000  -0.000   0.000  -0.000
   28        0.000  -0.000   0.000  -0.000
   29       -0.000  -0.000   0.000  -0.000
   30       -0.000  -0.000   0.000  -0.000
   31       -0.000  -0.000   0.000  -0.000
   32       -0.000  -0.000   0.000  -0.000
--------------------------------------------------
tot         -0.000  -0.000  -0.000  -0.000
 

 total amount of memory used by VASP MPI-rank0    48391. kBytes
=======================================================================

   base      :      30000. kBytes
   nonl-proj :       4591. kBytes
   fftplans  :       1377. kBytes
   grid      :       3962. kBytes
   one-center:         43. kBytes
   wavefun   :       8418. kBytes
 
  
  
 General timing and accounting informations for this job:
 ========================================================
  
                  Total CPU time used (sec):      166.290
                            User time (sec):      163.127
                          System time (sec):        3.163
                         Elapsed time (sec):      169.690
  
                   Maximum memory used (kb):      148320.
                   Average memory used (kb):          N/A
  
                          Minor page faults:       147061
                          Major page faults:            0
                 Voluntary context switches:         3374
