Li4 Ti4 P4 O20                          
   1.00000000000000     
     6.4308102567192007   -0.0000000000000000    0.0000000000000000
     0.0000000000000000    7.2669083430066523    0.0000000000000000
     0.0000000000000000    0.0000000000000000    7.3954085916132710
   Li   Ti   P    O 
     4     4     4    20
Direct
  0.0000000000000000 -0.0000000000000000  0.0000000000000000
  0.5000000000000000  0.5000000000000000  0.5000000000000000
  0.0000000000000000  0.5000000000000000  0.5000000000000000
  0.5000000000000000 -0.0000000000000000  0.0000000000000000
  0.7500000000000000  0.2781466492655959  0.8385551492003098
  0.2500000000000000  0.7218533507344042  0.1614448357996855
  0.2500000000000000  0.7781466492655958  0.6614448507996902
  0.7500000000000000  0.2218533507344040  0.3385551792003123
  0.2500000000000000  0.3696764260960497  0.8737946341795134
  0.7500000000000000  0.6303236029039491  0.1262053808204841
  0.7500000000000000  0.8696763970960509  0.6262053658204866
  0.2500000000000000  0.1303235739039502  0.3737946341795135
  0.9431600430033080  0.7439407489943133  0.6279338274425753
  0.5568399569966920  0.7560592510056867  0.1279338424425729
  0.0568399679966893  0.2439407489943134  0.8720661725574247
  0.4431600430033080  0.2560592510056867  0.3720661435574257
  0.0568399679966893  0.2560592510056867  0.3720661435574257
  0.5568399569966920  0.7439407489943133  0.6279338274425753
  0.9431600430033080  0.7560592510056867  0.1279338424425729
  0.4431600430033080  0.2439407489943134  0.8720661725574247
  0.7500000000000000  0.1561501161086001  0.1088985311788647
  0.2500000000000000  0.8438498838913998  0.8911014538211374
  0.2500000000000000  0.6561501161086002  0.3911014838211401
  0.7500000000000000  0.3438498838913999  0.6088985461788626
  0.7500000000000000  0.9964154570782233  0.7952283680210928
  0.2500000000000000  0.0035845349217760  0.2047716169789093
  0.2500000000000000  0.4964154570782233  0.7047716319789072
  0.7500000000000000  0.5035845429217767  0.2952283970210918
  0.2500000000000000  0.4839908280061792  0.0502121178321227
  0.7500000000000000  0.5160091719938203  0.9497879051678757
  0.7500000000000000  0.9839908280061797  0.4497878751678803
  0.2500000000000000  0.0160091659938202  0.5502120948321243
 
  0.00000000E+00  0.00000000E+00  0.00000000E+00
  0.00000000E+00  0.00000000E+00  0.00000000E+00
  0.00000000E+00  0.00000000E+00  0.00000000E+00
  0.00000000E+00  0.00000000E+00  0.00000000E+00
  0.00000000E+00  0.00000000E+00  0.00000000E+00
  0.00000000E+00  0.00000000E+00  0.00000000E+00
  0.00000000E+00  0.00000000E+00  0.00000000E+00
  0.00000000E+00  0.00000000E+00  0.00000000E+00
  0.00000000E+00  0.00000000E+00  0.00000000E+00
  0.00000000E+00  0.00000000E+00  0.00000000E+00
  0.00000000E+00  0.00000000E+00  0.00000000E+00
  0.00000000E+00  0.00000000E+00  0.00000000E+00
  0.00000000E+00  0.00000000E+00  0.00000000E+00
  0.00000000E+00  0.00000000E+00  0.00000000E+00
  0.00000000E+00  0.00000000E+00  0.00000000E+00
  0.00000000E+00  0.00000000E+00  0.00000000E+00
  0.00000000E+00  0.00000000E+00  0.00000000E+00
  0.00000000E+00  0.00000000E+00  0.00000000E+00
  0.00000000E+00  0.00000000E+00  0.00000000E+00
  0.00000000E+00  0.00000000E+00  0.00000000E+00
  0.00000000E+00  0.00000000E+00  0.00000000E+00
  0.00000000E+00  0.00000000E+00  0.00000000E+00
  0.00000000E+00  0.00000000E+00  0.00000000E+00
  0.00000000E+00  0.00000000E+00  0.00000000E+00
  0.00000000E+00  0.00000000E+00  0.00000000E+00
  0.00000000E+00  0.00000000E+00  0.00000000E+00
  0.00000000E+00  0.00000000E+00  0.00000000E+00
  0.00000000E+00  0.00000000E+00  0.00000000E+00
  0.00000000E+00  0.00000000E+00  0.00000000E+00
  0.00000000E+00  0.00000000E+00  0.00000000E+00
  0.00000000E+00  0.00000000E+00  0.00000000E+00
  0.00000000E+00  0.00000000E+00  0.00000000E+00
