Li28 La12 Zr8 O48                       
   1.00000000000000     
    11.1665207612522295   -0.0078542766549148    0.0000000011920935
    -4.1327407324570311   10.3736060094699010    0.0000000011923189
    -3.5168900928050975   -5.1828759819733508    9.2444863690706658
   Li   La   Zr   O 
    28    12     8    48
Direct
  0.5000000000000000  0.5000000000000000  0.0000000000000000
  0.0000000000000000  0.0000000000000000  0.0000000000000000
  0.2500000000000000  0.7500000000000000  0.5000000000000000
  0.7500000000000000  0.2500000000000000  0.5000000000000000
  0.9297148346840274  0.9297148346840274  0.3594296683679872
  0.0702851583160253  0.4297148346839776  0.0000000000000000
  0.6797148346840274  0.1797148346840274  0.8594296683679943
  0.8202851653160224  0.6797148346839776  0.5000000000000000
  0.3202851653159726  0.8202851653159726  0.1405703166320009
  0.1797148346839776  0.3202851653160224  0.5000000000000000
  0.5702851653159726  0.5702851653159726  0.6405703316320057
  0.4297148346839776  0.0702851583160253  0.0000000000000000
  0.9051616765259354  0.1499345162839916  0.9161858333587958
  0.7337486679251342  0.6499345012839299  0.2447738677579991
  0.8999345012839868  0.1551616615259377  0.4161858333587958
  0.2389758131671798  0.6551616765259780  0.2552261322419866
  0.3448383534740600  0.6000654987160132  0.5838141666412042
  0.5162513320748658  0.1000654767160682  0.2552261322420009
  0.3500654687160107  0.5948383234740646  0.0838141586412036
  0.0110241868328202  0.0948383454740167  0.2447738677580134
  0.4051616465259826  0.4889758131671798  0.7552261622419820
  0.2337486829251674  0.9889757831671204  0.0838141586411965
  0.3999345312839324  0.9837486679251342  0.7447738377580038
  0.7389757831671204  0.4837486679251697  0.5838141666411971
  0.8448383234740220  0.2610241868328202  0.7447738377580180
  0.0162513190748328  0.7610242168328796  0.4161858333588029
  0.8500654987160701  0.7662513320748658  0.7552261622419962
  0.5110242168328796  0.2662513320748303  0.9161858333588029
  0.7500000000000000  0.7500000000000000  0.0000000000000000
  0.2500000000000000  0.2500000000000000  0.0000000000000000
  0.5000000000000000  0.0000000000000000  0.5000000000000000
  0.0000000000000000  0.5000000000000000  0.5000000000000000
  0.3750000000000000  0.7528499492190690  0.8778499492190690
  0.3750000000000000  0.2528499492190619  0.3778499492190690
  0.5028499492190690  0.6250000000000000  0.3778499492190690
  0.7471500507809310  0.1250000000000000  0.1221500507809310
  0.8750000000000000  0.9971500507809310  0.6221500507809310
  0.8750000000000000  0.4971500507809381  0.1221500507809310
  0.0028499492190619  0.6250000000000000  0.8778499492190690
  0.2471500507809381  0.1250000000000000  0.6221500507809310
  0.6250000000000000  0.8750000000000000  0.7500000000000000
  0.6250000000000000  0.3750000000000000  0.2500000000000000
  0.6250000000000000  0.8750000000000000  0.2500000000000000
  0.1250000000000000  0.3750000000000000  0.2500000000000000
  0.1250000000000000  0.3750000000000000  0.7500000000000000
  0.1250000000000000  0.8750000000000000  0.2500000000000000
  0.1250000000000000  0.8750000000000000  0.7500000000000000
  0.6250000000000000  0.3750000000000000  0.7500000000000000
  0.5267326417067508  0.6858856301037264  0.7706169704380343
  0.4152686296656682  0.1858856151036932  0.1591529583969375
  0.4358856001037239  0.7767326417067508  0.2706169704380343
  0.0061156652687018  0.2767326417067224  0.3408470416030056
  0.7232673582932492  0.0641143918962754  0.7293830295619657
  0.8347313403343364  0.5641143698963091  0.3408470416030625
  0.8141143698962736  0.9732673582932492  0.2293830145619680
  0.2438843287312977  0.4732673582932776  0.1591529583969944
  0.0267326457067227  0.2561156712687023  0.8408470116030031
  0.9152686596656352  0.7561156712686596  0.2293830145619182
  0.9358856301036909  0.6652686596656636  0.6591529883969400
  0.5061156712686596  0.1652686296656398  0.7293830295619159
  0.2232673582932776  0.4938843287312977  0.6591529883969969
  0.3347313703343602  0.9938843287313404  0.2706169704380841
  0.3141143998963116  0.0847313703343318  0.8408470116030600
  0.7438843287313404  0.5847313403343648  0.7706169704380841
  0.9427280828954068  0.3952925453832492  0.6579419050734145
  0.2373506103099032  0.8952925453833060  0.4525644624878993
  0.1452925453832492  0.1927280978954045  0.1579419350734170
  0.5347861778219496  0.6927280828953641  0.0474355485121052
  0.3072719171045932  0.3547074546167508  0.8420580949265855
  0.0126493896900968  0.8547074546166940  0.0474355485120981
  0.1047074546167508  0.5572719171045932  0.3420580649265830
  0.7152138221780504  0.0572719061046385  0.4525644624878922
  0.4427280828953641  0.7847861778219496  0.5474355375121078
  0.7373506403098560  0.2847861478220111  0.3420580649265901
  0.6452925453833060  0.4873506103099032  0.9525644624878993
  0.0347861628220159  0.9873506403098560  0.8420580949265926
  0.8072719171046359  0.9652138221780504  0.9525644624878922
  0.5126493596901440  0.4652138521779889  0.1579419350734099
  0.6047074546166940  0.2626493896900968  0.5474355375121007
  0.2152138371779841  0.7626493596901440  0.6579419050734074
  0.2065405119695782  0.5791170316821166  0.9288802705537123
  0.1502367461284848  0.0791170466821782  0.3725765337126106
  0.3291170616821191  0.4565404969695805  0.4288803005537076
  0.5276601974158197  0.9565405269694978  0.1274234512874131
  0.0434594950304188  0.1708829533178786  0.5711197294462877
  0.0997632468715111  0.6708829683178266  0.1274234512873917
  0.9208829683178834  0.2934595030304195  0.0711196994462924
  0.7223398025841803  0.7934594730305022  0.3725765337125893
  0.7065405269694978  0.7776601974158197  0.6274234362874083
  0.6502367611284186  0.2776601974158694  0.0711196994463137
  0.8291170316821734  0.4002367611284896  0.8725765637126131
  0.0276602084158668  0.9002367611284186  0.5711197294463091
  0.5434594730305022  0.9723398025841803  0.8725765637125917
  0.5997632388715814  0.4723398025841306  0.4288803005536863
  0.4208829383178241  0.3497632388715104  0.6274234362873869
  0.2223397885841294  0.8497632388715814  0.9288802705536909
 
  0.00000000E+00  0.00000000E+00  0.00000000E+00
  0.00000000E+00  0.00000000E+00  0.00000000E+00
  0.00000000E+00  0.00000000E+00  0.00000000E+00
  0.00000000E+00  0.00000000E+00  0.00000000E+00
  0.00000000E+00  0.00000000E+00  0.00000000E+00
  0.00000000E+00  0.00000000E+00  0.00000000E+00
  0.00000000E+00  0.00000000E+00  0.00000000E+00
  0.00000000E+00  0.00000000E+00  0.00000000E+00
  0.00000000E+00  0.00000000E+00  0.00000000E+00
  0.00000000E+00  0.00000000E+00  0.00000000E+00
  0.00000000E+00  0.00000000E+00  0.00000000E+00
  0.00000000E+00  0.00000000E+00  0.00000000E+00
  0.00000000E+00  0.00000000E+00  0.00000000E+00
  0.00000000E+00  0.00000000E+00  0.00000000E+00
  0.00000000E+00  0.00000000E+00  0.00000000E+00
  0.00000000E+00  0.00000000E+00  0.00000000E+00
  0.00000000E+00  0.00000000E+00  0.00000000E+00
  0.00000000E+00  0.00000000E+00  0.00000000E+00
  0.00000000E+00  0.00000000E+00  0.00000000E+00
  0.00000000E+00  0.00000000E+00  0.00000000E+00
  0.00000000E+00  0.00000000E+00  0.00000000E+00
  0.00000000E+00  0.00000000E+00  0.00000000E+00
  0.00000000E+00  0.00000000E+00  0.00000000E+00
  0.00000000E+00  0.00000000E+00  0.00000000E+00
  0.00000000E+00  0.00000000E+00  0.00000000E+00
  0.00000000E+00  0.00000000E+00  0.00000000E+00
  0.00000000E+00  0.00000000E+00  0.00000000E+00
  0.00000000E+00  0.00000000E+00  0.00000000E+00
  0.00000000E+00  0.00000000E+00  0.00000000E+00
  0.00000000E+00  0.00000000E+00  0.00000000E+00
  0.00000000E+00  0.00000000E+00  0.00000000E+00
  0.00000000E+00  0.00000000E+00  0.00000000E+00
  0.00000000E+00  0.00000000E+00  0.00000000E+00
  0.00000000E+00  0.00000000E+00  0.00000000E+00
  0.00000000E+00  0.00000000E+00  0.00000000E+00
  0.00000000E+00  0.00000000E+00  0.00000000E+00
  0.00000000E+00  0.00000000E+00  0.00000000E+00
  0.00000000E+00  0.00000000E+00  0.00000000E+00
  0.00000000E+00  0.00000000E+00  0.00000000E+00
  0.00000000E+00  0.00000000E+00  0.00000000E+00
  0.00000000E+00  0.00000000E+00  0.00000000E+00
  0.00000000E+00  0.00000000E+00  0.00000000E+00
  0.00000000E+00  0.00000000E+00  0.00000000E+00
  0.00000000E+00  0.00000000E+00  0.00000000E+00
  0.00000000E+00  0.00000000E+00  0.00000000E+00
  0.00000000E+00  0.00000000E+00  0.00000000E+00
  0.00000000E+00  0.00000000E+00  0.00000000E+00
  0.00000000E+00  0.00000000E+00  0.00000000E+00
  0.00000000E+00  0.00000000E+00  0.00000000E+00
  0.00000000E+00  0.00000000E+00  0.00000000E+00
  0.00000000E+00  0.00000000E+00  0.00000000E+00
  0.00000000E+00  0.00000000E+00  0.00000000E+00
  0.00000000E+00  0.00000000E+00  0.00000000E+00
  0.00000000E+00  0.00000000E+00  0.00000000E+00
  0.00000000E+00  0.00000000E+00  0.00000000E+00
  0.00000000E+00  0.00000000E+00  0.00000000E+00
  0.00000000E+00  0.00000000E+00  0.00000000E+00
  0.00000000E+00  0.00000000E+00  0.00000000E+00
  0.00000000E+00  0.00000000E+00  0.00000000E+00
  0.00000000E+00  0.00000000E+00  0.00000000E+00
  0.00000000E+00  0.00000000E+00  0.00000000E+00
  0.00000000E+00  0.00000000E+00  0.00000000E+00
  0.00000000E+00  0.00000000E+00  0.00000000E+00
  0.00000000E+00  0.00000000E+00  0.00000000E+00
  0.00000000E+00  0.00000000E+00  0.00000000E+00
  0.00000000E+00  0.00000000E+00  0.00000000E+00
  0.00000000E+00  0.00000000E+00  0.00000000E+00
  0.00000000E+00  0.00000000E+00  0.00000000E+00
  0.00000000E+00  0.00000000E+00  0.00000000E+00
  0.00000000E+00  0.00000000E+00  0.00000000E+00
  0.00000000E+00  0.00000000E+00  0.00000000E+00
  0.00000000E+00  0.00000000E+00  0.00000000E+00
  0.00000000E+00  0.00000000E+00  0.00000000E+00
  0.00000000E+00  0.00000000E+00  0.00000000E+00
  0.00000000E+00  0.00000000E+00  0.00000000E+00
  0.00000000E+00  0.00000000E+00  0.00000000E+00
  0.00000000E+00  0.00000000E+00  0.00000000E+00
  0.00000000E+00  0.00000000E+00  0.00000000E+00
  0.00000000E+00  0.00000000E+00  0.00000000E+00
  0.00000000E+00  0.00000000E+00  0.00000000E+00
  0.00000000E+00  0.00000000E+00  0.00000000E+00
  0.00000000E+00  0.00000000E+00  0.00000000E+00
  0.00000000E+00  0.00000000E+00  0.00000000E+00
  0.00000000E+00  0.00000000E+00  0.00000000E+00
  0.00000000E+00  0.00000000E+00  0.00000000E+00
  0.00000000E+00  0.00000000E+00  0.00000000E+00
  0.00000000E+00  0.00000000E+00  0.00000000E+00
  0.00000000E+00  0.00000000E+00  0.00000000E+00
  0.00000000E+00  0.00000000E+00  0.00000000E+00
  0.00000000E+00  0.00000000E+00  0.00000000E+00
  0.00000000E+00  0.00000000E+00  0.00000000E+00
  0.00000000E+00  0.00000000E+00  0.00000000E+00
  0.00000000E+00  0.00000000E+00  0.00000000E+00
  0.00000000E+00  0.00000000E+00  0.00000000E+00
  0.00000000E+00  0.00000000E+00  0.00000000E+00
  0.00000000E+00  0.00000000E+00  0.00000000E+00
