Li4 Hf2 O6                              
   1.00000000000000     
     9.4220766891832941    0.0000000000000000   -0.7049968460020408
     0.0000000000000000    4.1614135858039498    0.0000000000000000
    -0.3054614127226043    0.0000000000000000    3.1433621886439593
   Li   Hf   O 
     4     2     6
Direct
  0.8392148894449889  0.5000000000000000  0.4361241559158344
  0.6607851105550111  0.0000000000000000  0.5638758440841656
  0.3392148894449889  0.0000000000000000  0.4361241559158344
  0.1607851105550111  0.5000000000000000  0.5638758440841656
  0.0000000000000000  0.0000000000000000  0.0000000000000000
  0.5000000000000000  0.5000000000000000  0.0000000000000000
  0.6469155476543165  0.5000000000000000  0.5773518325824512
  0.0000000000000000  0.5000000000000000  0.0000000000000000
  0.8530844523456835  0.0000000000000000  0.4226481374175464
  0.1469155616543176  0.0000000000000000  0.5773518325824512
  0.5000000000000000  0.0000000000000000  0.0000000000000000
  0.3530844523456835  0.5000000000000000  0.4226481374175464
 
  0.00000000E+00  0.00000000E+00  0.00000000E+00
  0.00000000E+00  0.00000000E+00  0.00000000E+00
  0.00000000E+00  0.00000000E+00  0.00000000E+00
  0.00000000E+00  0.00000000E+00  0.00000000E+00
  0.00000000E+00  0.00000000E+00  0.00000000E+00
  0.00000000E+00  0.00000000E+00  0.00000000E+00
  0.00000000E+00  0.00000000E+00  0.00000000E+00
  0.00000000E+00  0.00000000E+00  0.00000000E+00
  0.00000000E+00  0.00000000E+00  0.00000000E+00
  0.00000000E+00  0.00000000E+00  0.00000000E+00
  0.00000000E+00  0.00000000E+00  0.00000000E+00
  0.00000000E+00  0.00000000E+00  0.00000000E+00
