Li8 Pd4 O12                             
   1.00000000000000     
     5.1181625429059521    0.0000000000000000   -0.0014831705652738
     0.0000000000000000    8.8493487953007843    0.0000000000000000
    -1.7058590962592100    0.0000000000000000    4.7417352644954196
   Li   Pd   O 
     8     4    12
Direct
  0.5000000000000000  0.0000000000000000  0.5000000000000000
  0.5000000000000000  0.3368757646493918  0.5000000000000000
  0.5000000000000000  0.6631242353506082  0.5000000000000000
  0.0000000000000000  0.0000000000000000  0.0000000000000000
  0.0000000000000000  0.5000000000000000  0.5000000000000000
  0.0000000000000000  0.8368757646493918  0.5000000000000000
  0.0000000000000000  0.1631242203506034  0.5000000000000000
  0.5000000000000000  0.5000000000000000  0.0000000000000000
  0.5000000000000000  0.1667250353366256  0.0000000000000000
  0.5000000000000000  0.8332749796633721  0.0000000000000000
  0.0000000000000000  0.6667250203366279  0.0000000000000000
  0.0000000000000000  0.3332749796633721  0.0000000000000000
  0.7339375275768347  0.0000000000000000  0.2401777775062897
  0.7481962403561297  0.1731108306140143  0.7629979288546167
  0.7481962403561297  0.8268891843859834  0.7629979288546167
  0.2518037596438703  0.8268891843859834  0.2370020561453856
  0.2518037596438703  0.1731108306140143  0.2370020561453856
  0.2660624424231628  0.0000000000000000  0.7598222224937103
  0.2339375425768395  0.5000000000000000  0.2401777775062897
  0.2481962403561297  0.6731108156140166  0.7629979288546167
  0.2481962403561297  0.3268891543859809  0.7629979288546167
  0.7518037596438703  0.3268891543859809  0.2370020561453856
  0.7518037596438703  0.6731108156140166  0.2370020561453856
  0.7660624724231653  0.5000000000000000  0.7598222224937103
 
  0.00000000E+00  0.00000000E+00  0.00000000E+00
  0.00000000E+00  0.00000000E+00  0.00000000E+00
  0.00000000E+00  0.00000000E+00  0.00000000E+00
  0.00000000E+00  0.00000000E+00  0.00000000E+00
  0.00000000E+00  0.00000000E+00  0.00000000E+00
  0.00000000E+00  0.00000000E+00  0.00000000E+00
  0.00000000E+00  0.00000000E+00  0.00000000E+00
  0.00000000E+00  0.00000000E+00  0.00000000E+00
  0.00000000E+00  0.00000000E+00  0.00000000E+00
  0.00000000E+00  0.00000000E+00  0.00000000E+00
  0.00000000E+00  0.00000000E+00  0.00000000E+00
  0.00000000E+00  0.00000000E+00  0.00000000E+00
  0.00000000E+00  0.00000000E+00  0.00000000E+00
  0.00000000E+00  0.00000000E+00  0.00000000E+00
  0.00000000E+00  0.00000000E+00  0.00000000E+00
  0.00000000E+00  0.00000000E+00  0.00000000E+00
  0.00000000E+00  0.00000000E+00  0.00000000E+00
  0.00000000E+00  0.00000000E+00  0.00000000E+00
  0.00000000E+00  0.00000000E+00  0.00000000E+00
  0.00000000E+00  0.00000000E+00  0.00000000E+00
  0.00000000E+00  0.00000000E+00  0.00000000E+00
  0.00000000E+00  0.00000000E+00  0.00000000E+00
  0.00000000E+00  0.00000000E+00  0.00000000E+00
  0.00000000E+00  0.00000000E+00  0.00000000E+00
