Li4 Al20 O32                            
   1.00000000000000     
     7.9412127361237248    0.0000000000000000   -0.0000000000000000
     0.0000000000000000    7.9412127361237248    0.0000000000000000
     0.0000000000000000    0.0000000000000000    7.9412127361237248
   Li   Al   O 
     4    20    32
Direct
  0.1250000000000000  0.8750000000000000  0.3750000000000000
  0.3750000000000000  0.1250000000000000  0.8750000000000000
  0.6250000000000000  0.6250000000000000  0.6250000000000000
  0.8750000000000000  0.3750000000000000  0.1250000000000000
  0.9976126292833341  0.9976126292833341  0.9976126292833341
  0.0023873667166657  0.4976126292833340  0.5023873707166659
  0.1185453402996166  0.6250000000000000  0.1314546527003792
  0.1250000000000000  0.3685453472996208  0.8814546827003817
  0.1314546527003792  0.1185453402996166  0.6250000000000000
  0.2476126292833340  0.7476126292833341  0.7523873707166659
  0.2523873707166660  0.2523873707166660  0.2523873707166660
  0.3685453472996208  0.8814546827003817  0.1250000000000000
  0.3750000000000000  0.6314546827003817  0.3814546527003792
  0.3814546527003792  0.3750000000000000  0.6314546827003817
  0.4976126292833340  0.5023873707166659  0.0023873667166657
  0.5023873707166659  0.0023873667166657  0.4976126292833340
  0.6185453172996183  0.8750000000000000  0.8685453172996183
  0.6250000000000000  0.1314546527003792  0.1185453402996166
  0.6314546827003817  0.3814546527003792  0.3750000000000000
  0.7476126292833341  0.7523873707166659  0.2476126292833340
  0.7523873707166659  0.2476126292833340  0.7476126292833341
  0.8685453172996183  0.6185453172996183  0.8750000000000000
  0.8750000000000000  0.8685453172996183  0.6185453172996183
  0.8814546827003817  0.1250000000000000  0.3685453472996208
  0.6145839825120755  0.8854160174879245  0.1145839975120803
  0.6155734197197673  0.6152850264621459  0.3678299900712986
  0.8645839825120755  0.8645839825120755  0.8645839825120755
  0.8655734197197673  0.1178299820713051  0.1347149585378565
  0.8678299600713033  0.8844265802802327  0.3847149735378542
  0.8847149735378541  0.6321700399286967  0.1155734057197662
  0.1145839975120803  0.6145839825120755  0.8854160174879245
  0.1152850414621435  0.1321700099287014  0.3844266092802315
  0.1155734057197662  0.8847149735378541  0.6321700399286967
  0.1178299820713051  0.1347149585378565  0.8655734197197673
  0.1321700099287014  0.3844266092802315  0.1152850414621435
  0.1347149585378565  0.8655734197197673  0.1178299820713051
  0.3645839825120755  0.6354160174879245  0.1354160024879197
  0.3652850264621458  0.1344265942802338  0.6178299600713033
  0.3655733907197685  0.3821700099287014  0.8652850264621459
  0.3678299900712986  0.6155734197197673  0.6152850264621459
  0.3821700099287014  0.8652850264621459  0.3655733907197685
  0.3844266092802315  0.1152850414621435  0.1321700099287014
  0.3847149735378542  0.8678299600713033  0.8844265802802327
  0.3854160174879245  0.3854160174879245  0.3854160174879245
  0.6152850264621459  0.3678299900712986  0.6155734197197673
  0.6178299600713033  0.3652850264621458  0.1344265942802338
  0.6321700399286967  0.1155734057197662  0.8847149735378541
  0.6344265802802327  0.8821700399286967  0.6347149735378541
  0.6347149735378541  0.6344265802802327  0.8821700399286967
  0.6354160174879245  0.1354160024879197  0.3645839825120755
  0.8652850264621459  0.3655733907197685  0.3821700099287014
  0.8821700399286967  0.6347149735378541  0.6344265802802327
  0.8844265802802327  0.3847149735378542  0.8678299600713033
  0.8854160174879245  0.1145839975120803  0.6145839825120755
  0.1344265942802338  0.6178299600713033  0.3652850264621458
  0.1354160024879197  0.3645839825120755  0.6354160174879245
 
  0.00000000E+00  0.00000000E+00  0.00000000E+00
  0.00000000E+00  0.00000000E+00  0.00000000E+00
  0.00000000E+00  0.00000000E+00  0.00000000E+00
  0.00000000E+00  0.00000000E+00  0.00000000E+00
  0.00000000E+00  0.00000000E+00  0.00000000E+00
  0.00000000E+00  0.00000000E+00  0.00000000E+00
  0.00000000E+00  0.00000000E+00  0.00000000E+00
  0.00000000E+00  0.00000000E+00  0.00000000E+00
  0.00000000E+00  0.00000000E+00  0.00000000E+00
  0.00000000E+00  0.00000000E+00  0.00000000E+00
  0.00000000E+00  0.00000000E+00  0.00000000E+00
  0.00000000E+00  0.00000000E+00  0.00000000E+00
  0.00000000E+00  0.00000000E+00  0.00000000E+00
  0.00000000E+00  0.00000000E+00  0.00000000E+00
  0.00000000E+00  0.00000000E+00  0.00000000E+00
  0.00000000E+00  0.00000000E+00  0.00000000E+00
  0.00000000E+00  0.00000000E+00  0.00000000E+00
  0.00000000E+00  0.00000000E+00  0.00000000E+00
  0.00000000E+00  0.00000000E+00  0.00000000E+00
  0.00000000E+00  0.00000000E+00  0.00000000E+00
  0.00000000E+00  0.00000000E+00  0.00000000E+00
  0.00000000E+00  0.00000000E+00  0.00000000E+00
  0.00000000E+00  0.00000000E+00  0.00000000E+00
  0.00000000E+00  0.00000000E+00  0.00000000E+00
  0.00000000E+00  0.00000000E+00  0.00000000E+00
  0.00000000E+00  0.00000000E+00  0.00000000E+00
  0.00000000E+00  0.00000000E+00  0.00000000E+00
  0.00000000E+00  0.00000000E+00  0.00000000E+00
  0.00000000E+00  0.00000000E+00  0.00000000E+00
  0.00000000E+00  0.00000000E+00  0.00000000E+00
  0.00000000E+00  0.00000000E+00  0.00000000E+00
  0.00000000E+00  0.00000000E+00  0.00000000E+00
  0.00000000E+00  0.00000000E+00  0.00000000E+00
  0.00000000E+00  0.00000000E+00  0.00000000E+00
  0.00000000E+00  0.00000000E+00  0.00000000E+00
  0.00000000E+00  0.00000000E+00  0.00000000E+00
  0.00000000E+00  0.00000000E+00  0.00000000E+00
  0.00000000E+00  0.00000000E+00  0.00000000E+00
  0.00000000E+00  0.00000000E+00  0.00000000E+00
  0.00000000E+00  0.00000000E+00  0.00000000E+00
  0.00000000E+00  0.00000000E+00  0.00000000E+00
  0.00000000E+00  0.00000000E+00  0.00000000E+00
  0.00000000E+00  0.00000000E+00  0.00000000E+00
  0.00000000E+00  0.00000000E+00  0.00000000E+00
  0.00000000E+00  0.00000000E+00  0.00000000E+00
  0.00000000E+00  0.00000000E+00  0.00000000E+00
  0.00000000E+00  0.00000000E+00  0.00000000E+00
  0.00000000E+00  0.00000000E+00  0.00000000E+00
  0.00000000E+00  0.00000000E+00  0.00000000E+00
  0.00000000E+00  0.00000000E+00  0.00000000E+00
  0.00000000E+00  0.00000000E+00  0.00000000E+00
  0.00000000E+00  0.00000000E+00  0.00000000E+00
  0.00000000E+00  0.00000000E+00  0.00000000E+00
  0.00000000E+00  0.00000000E+00  0.00000000E+00
  0.00000000E+00  0.00000000E+00  0.00000000E+00
  0.00000000E+00  0.00000000E+00  0.00000000E+00
