Li2 Ge4 N6                              
   1.00000000000000     
     5.1094480219833578    0.0000000000000000    0.0000000000000000
     0.0000000000000000    5.5587374948648396   -0.0000000017281694
     0.0000000000000000   -2.7793689668204871    4.8080695555871893
   Li   Ge   N 
     2     4     6
Direct
  0.4953583976475073  0.3411671232027231  0.0000000000000284
  0.9953583676475120  0.6588328767972769  0.9999999999999716
  0.4919870599080980  0.6693009887691801  0.6744179856842933
  0.4919870599080980  0.9948830030849081  0.3255820143159269
  0.9919870889081039  0.3306990112308199  0.3255820143157067
  0.9919870889081039  0.0051169929150916  0.6744179856840731
  0.1211458556622134  0.6648983714941608  0.6326950923827113
  0.1211458556622134  0.0322032631105031  0.3673049076169121
  0.6211458786622117  0.3351016585058417  0.3673049076172816
  0.6211458786622117  0.9677967218894992  0.6326950923830879
  0.0993737692118515  0.3058432179426305  0.0000000000007674
  0.5993737692118515  0.6941567820573695  0.9999999999992326
 
  0.00000000E+00  0.00000000E+00  0.00000000E+00
  0.00000000E+00  0.00000000E+00  0.00000000E+00
  0.00000000E+00  0.00000000E+00  0.00000000E+00
  0.00000000E+00  0.00000000E+00  0.00000000E+00
  0.00000000E+00  0.00000000E+00  0.00000000E+00
  0.00000000E+00  0.00000000E+00  0.00000000E+00
  0.00000000E+00  0.00000000E+00  0.00000000E+00
  0.00000000E+00  0.00000000E+00  0.00000000E+00
  0.00000000E+00  0.00000000E+00  0.00000000E+00
  0.00000000E+00  0.00000000E+00  0.00000000E+00
  0.00000000E+00  0.00000000E+00  0.00000000E+00
  0.00000000E+00  0.00000000E+00  0.00000000E+00
