Li1 La2 H1 O3                           
   1.00000000000000     
     3.5501691948081087   -0.0000000000000001    0.0000000014339063
    -0.0000000000000001    3.7591652441164540    0.0000000017129315
    -1.7750849326697680   -1.8795829997800513    6.4163256646438960
   Li   La   H    O 
     1     2     1     3
Direct
  0.0000000000000000  0.0000000000000000  0.0000000000000000
  0.3633357939883197  0.3633357939883268  0.7266715879764334
  0.6366642060116803  0.6366642060116732  0.2733284120235666
  0.5000000000000000  0.0000000000000000  0.0000000000000000
  0.0000000000000000  0.5000000000000000  0.0000000000000000
  0.8234243499377811  0.8234243499377172  0.6468486998755623
  0.1765756500622189  0.1765756500622828  0.3531513001244377
 
  0.00000000E+00  0.00000000E+00  0.00000000E+00
  0.00000000E+00  0.00000000E+00  0.00000000E+00
  0.00000000E+00  0.00000000E+00  0.00000000E+00
  0.00000000E+00  0.00000000E+00  0.00000000E+00
  0.00000000E+00  0.00000000E+00  0.00000000E+00
  0.00000000E+00  0.00000000E+00  0.00000000E+00
  0.00000000E+00  0.00000000E+00  0.00000000E+00
