Li8 Ti4 O12                             
   1.00000000000000     
     5.0461059643229031    0.0002807045686871   -0.0008857484944562
    -2.5309466591397336    4.3654890322723876   -0.0008857484945424
     0.8563140989773920    1.4863751059149586    9.4902188952985487
   Li   Ti   O 
     8     4    12
Direct
  0.1576920932367614  0.3149278160587912  0.0004246102159016
  0.6850722139412113  0.8423079207632398  0.4995753787840940
  0.8423079207632398  0.6850722139412113  0.9995753787840940
  0.3149278160587912  0.1576920932367614  0.5004246212159060
  0.0000000000000000  0.5000000000000000  0.5000000000000000
  0.5000000000000000  0.0000000000000000  0.0000000000000000
  0.9156448795564103  0.0843550984435879  0.7500000000000000
  0.0843550984435879  0.9156448795564103  0.2500000000000000
  0.5828701175710762  0.4171299124289263  0.7500000000000000
  0.7493136494075330  0.2506863205924645  0.2500000000000000
  0.2506863205924645  0.7493136494075330  0.7500000000000000
  0.4171299124289263  0.5828701175710762  0.2500000000000000
  0.0441181820545822  0.2287496670011393  0.3679650486132644
  0.8766820983887840  0.3987081904752117  0.8657206429317483
  0.7712503329988607  0.9558818399454196  0.1320349663867333
  0.9558818399454196  0.7712503329988607  0.6320349813867381
  0.5247271502644253  0.6927866611794329  0.8656117233012139
  0.6012918095247883  0.1233179166112208  0.6342793570682517
  0.1233179166112208  0.6012918095247883  0.1342793720682494
  0.3987081904752117  0.8766820983887840  0.3657206129317530
  0.6927866611794329  0.5247271502644253  0.3656116933012186
  0.3072133688205696  0.4752728497355747  0.6343882766987861
  0.4752728497355747  0.3072133688205696  0.1343882916987837
  0.2287496670011393  0.0441181820545822  0.8679650186132619
 
  0.00000000E+00  0.00000000E+00  0.00000000E+00
  0.00000000E+00  0.00000000E+00  0.00000000E+00
  0.00000000E+00  0.00000000E+00  0.00000000E+00
  0.00000000E+00  0.00000000E+00  0.00000000E+00
  0.00000000E+00  0.00000000E+00  0.00000000E+00
  0.00000000E+00  0.00000000E+00  0.00000000E+00
  0.00000000E+00  0.00000000E+00  0.00000000E+00
  0.00000000E+00  0.00000000E+00  0.00000000E+00
  0.00000000E+00  0.00000000E+00  0.00000000E+00
  0.00000000E+00  0.00000000E+00  0.00000000E+00
  0.00000000E+00  0.00000000E+00  0.00000000E+00
  0.00000000E+00  0.00000000E+00  0.00000000E+00
  0.00000000E+00  0.00000000E+00  0.00000000E+00
  0.00000000E+00  0.00000000E+00  0.00000000E+00
  0.00000000E+00  0.00000000E+00  0.00000000E+00
  0.00000000E+00  0.00000000E+00  0.00000000E+00
  0.00000000E+00  0.00000000E+00  0.00000000E+00
  0.00000000E+00  0.00000000E+00  0.00000000E+00
  0.00000000E+00  0.00000000E+00  0.00000000E+00
  0.00000000E+00  0.00000000E+00  0.00000000E+00
  0.00000000E+00  0.00000000E+00  0.00000000E+00
  0.00000000E+00  0.00000000E+00  0.00000000E+00
  0.00000000E+00  0.00000000E+00  0.00000000E+00
  0.00000000E+00  0.00000000E+00  0.00000000E+00
