Li1 Nd2 H1 O3                           
   1.00000000000000     
     6.6849105066929999   -0.0225690252555019    0.0120520894998604
     4.8090463354937230    4.6434482019062262   -0.0120520835681086
    -5.6875580577282925   -2.4582417584988052    2.5094648602372422
   Li   Nd   H    O 
     1     2     1     3
Direct
  0.0000000000000000  0.0000000000000000  0.0000000000000000
  0.3629057044762050  0.3629057044763755  0.0000000000009948
  0.6370942655237926  0.6370942655236220  0.9999999999990052
  0.0000000000000000  0.5000000000000000  0.5000000000000000
  0.5000000000000000  0.0000000000000000  0.5000000000000000
  0.8234252641274082  0.8234252641274722  0.0000000000004192
  0.1765747508725966  0.1765747508725326  0.9999999999995808
 
  0.00000000E+00  0.00000000E+00  0.00000000E+00
  0.00000000E+00  0.00000000E+00  0.00000000E+00
  0.00000000E+00  0.00000000E+00  0.00000000E+00
  0.00000000E+00  0.00000000E+00  0.00000000E+00
  0.00000000E+00  0.00000000E+00  0.00000000E+00
  0.00000000E+00  0.00000000E+00  0.00000000E+00
  0.00000000E+00  0.00000000E+00  0.00000000E+00
