Li8 Nb8 O24                             
   1.00000000000000     
     5.1640913623754336    0.0001926124681874    0.0009248060326203
    -2.5822443545082452    4.9120270966030191    0.0022880772890915
    -2.5850420420306954   -0.5279969976076315   17.0446718821431240
   Li   Nb   O 
     8     8    24
Direct
  0.4401056196110460  0.8066958057932396  0.0733472253912950
  0.9400995668579171  0.5566705965363781  0.3233342350460404
  0.1901055469497521  0.1816351764601123  0.1983218063580168
  0.4399164740943746  0.3066814595097966  0.5733175178720060
  0.6900002070912876  0.9316112556142997  0.4483427139212850
  0.9399425413804323  0.0567198554250226  0.8233253440085093
  0.1898917885324138  0.6816664774404870  0.6983382908943696
  0.6900173436299255  0.4317260092333228  0.9483247401989132
  0.0174880252992793  0.0320260087086126  0.0028927196422259
  0.5175028540088107  0.7819755784176223  0.2529019921819256
  0.7675603813963008  0.4070051620595763  0.1279001862891604
  0.0173587465649732  0.5319585373159299  0.5029067712600579
  0.2674832027925618  0.1569869753116109  0.3778937563152951
  0.5173559602380067  0.2820048790767373  0.7528944154518840
  0.7673607062793266  0.9069873184680404  0.6278989788097817
  0.2674516642897515  0.6570085215426573  0.8779061255198499
  0.4806209921679780  0.0416625808403666  0.1826445498677387
  0.4361692608704715  0.1955766921927946  0.0288136117872284
  0.9198596770397671  0.1296982567875133  0.0946251044404960
  0.5382732113855297  0.5704822371431106  0.1538224011025093
  0.0545891164886925  0.5047080242446071  0.2196296078063043
  0.9805520662307572  0.7916634070150508  0.4326455073638940
  0.9938527815843941  0.6667250213827955  0.0576505859568570
  0.9362114104923407  0.9454921494578059  0.2788157067126207
  0.4199106458419308  0.8796901148280085  0.3446294578739000
  0.0382738088759211  0.3205246049780470  0.4038184356276346
  0.5545092965902967  0.2546719295390290  0.4696309991138392
  0.4804474220492310  0.5417047358423801  0.6826509882642782
  0.4938770547666707  0.4166763925893022  0.3076508381603205
  0.4360700165510565  0.6954534176230922  0.5288263667197697
  0.9197783103939656  0.6297018817269446  0.5946300205032955
  0.5381276367504810  0.0705390056244966  0.6538100912193556
  0.0544095023197571  0.0047078161172536  0.7196258992265143
  0.9805231404956913  0.2917188282577428  0.9326516551697850
  0.9937198854587876  0.1666404206871519  0.5576429649882257
  0.9360358269567612  0.4455187391909803  0.7788216880583363
  0.4197505612531813  0.3797123141581054  0.8446264061410744
  0.0381646368323345  0.8205286918345962  0.9038167464799756
  0.5544976437818221  0.7547431299095066  0.9696282618942860
  0.4937304578060093  0.9167000021158742  0.8076452993611341
 
  0.00000000E+00  0.00000000E+00  0.00000000E+00
  0.00000000E+00  0.00000000E+00  0.00000000E+00
  0.00000000E+00  0.00000000E+00  0.00000000E+00
  0.00000000E+00  0.00000000E+00  0.00000000E+00
  0.00000000E+00  0.00000000E+00  0.00000000E+00
  0.00000000E+00  0.00000000E+00  0.00000000E+00
  0.00000000E+00  0.00000000E+00  0.00000000E+00
  0.00000000E+00  0.00000000E+00  0.00000000E+00
  0.00000000E+00  0.00000000E+00  0.00000000E+00
  0.00000000E+00  0.00000000E+00  0.00000000E+00
  0.00000000E+00  0.00000000E+00  0.00000000E+00
  0.00000000E+00  0.00000000E+00  0.00000000E+00
  0.00000000E+00  0.00000000E+00  0.00000000E+00
  0.00000000E+00  0.00000000E+00  0.00000000E+00
  0.00000000E+00  0.00000000E+00  0.00000000E+00
  0.00000000E+00  0.00000000E+00  0.00000000E+00
  0.00000000E+00  0.00000000E+00  0.00000000E+00
  0.00000000E+00  0.00000000E+00  0.00000000E+00
  0.00000000E+00  0.00000000E+00  0.00000000E+00
  0.00000000E+00  0.00000000E+00  0.00000000E+00
  0.00000000E+00  0.00000000E+00  0.00000000E+00
  0.00000000E+00  0.00000000E+00  0.00000000E+00
  0.00000000E+00  0.00000000E+00  0.00000000E+00
  0.00000000E+00  0.00000000E+00  0.00000000E+00
  0.00000000E+00  0.00000000E+00  0.00000000E+00
  0.00000000E+00  0.00000000E+00  0.00000000E+00
  0.00000000E+00  0.00000000E+00  0.00000000E+00
  0.00000000E+00  0.00000000E+00  0.00000000E+00
  0.00000000E+00  0.00000000E+00  0.00000000E+00
  0.00000000E+00  0.00000000E+00  0.00000000E+00
  0.00000000E+00  0.00000000E+00  0.00000000E+00
  0.00000000E+00  0.00000000E+00  0.00000000E+00
  0.00000000E+00  0.00000000E+00  0.00000000E+00
  0.00000000E+00  0.00000000E+00  0.00000000E+00
  0.00000000E+00  0.00000000E+00  0.00000000E+00
  0.00000000E+00  0.00000000E+00  0.00000000E+00
  0.00000000E+00  0.00000000E+00  0.00000000E+00
  0.00000000E+00  0.00000000E+00  0.00000000E+00
  0.00000000E+00  0.00000000E+00  0.00000000E+00
  0.00000000E+00  0.00000000E+00  0.00000000E+00
