Li24 Ga8 N16                            
   1.00000000000000     
     8.3029362795611004   -0.0000587422407530   -0.0001017373677339
    -2.7675910951626719    7.8281178623670407   -0.0001016951436984
    -2.7675936253460822   -3.9138955456343512    6.7794246110448482
   Li   Ga   N 
    24     8    16
Direct
  0.7389602242885301  0.7637218658026825  0.2335885329723626
  0.0301328816524377  0.5053704991807777  0.2664097837770557
  0.7610410140600690  0.9946315797784062  0.0247630387100332
  0.2664103880040014  0.0301325178540436  0.5053679908851836
  0.7637234098833272  0.2335904088957814  0.7389595648612192
  0.7362780914211647  0.4752369934596729  0.4698690215450861
  0.4752357831989718  0.4698675533534118  0.7362774307819429
  0.5053688255686165  0.2664087554221883  0.0301329726170145
  0.0247639095172345  0.7610410012858801  0.9946313811703384
  0.9946313457562718  0.0247624595203653  0.7610409172070072
  0.2335897875713202  0.7389594270268900  0.7637234443632743
  0.4698677571436948  0.7362759944551192  0.4752369866444137
  0.2610407324649109  0.2362776825069138  0.7664103455773337
  0.9698683759295365  0.4946313640874085  0.7335902347760156
  0.2389608691440124  0.0053698181392375  0.9752377382086432
  0.7335901302367795  0.9698648228704775  0.4946301277420610
  0.2362760783973146  0.7664082058143555  0.2610396657321735
  0.2637232404422672  0.5247640031200231  0.5301327662274530
  0.5247632822138444  0.5301333984798214  0.2637235760156154
  0.5301322615532327  0.2637231075661645  0.5247626098735735
  0.9752371577418987  0.2389600571583371  0.0053699866247371
  0.0053689629679031  0.9752362402743768  0.2389594772984493
  0.7664098025533086  0.2610416521317825  0.2362775417880797
  0.4946320331252446  0.7335917018184706  0.9698689947102229
  0.4999978341745162  0.9999995617146783  0.2386229911831353
  0.9999995475869061  0.2386232672775027  0.4999985351504410
  0.2613775501744890  0.2613773360169101  0.2613773840317702
  0.2386234921211667  0.4999984471395014  0.9999999603317204
  0.5000013835959323  0.0000001917570605  0.7613766084091655
  0.0000003616496223  0.7613769842677751  0.5000019347330634
  0.7386225834408793  0.7386225789666928  0.7386226832509585
  0.7613761543165429  0.5000011348420109  0.9999993123754791
  0.7680468947110787  0.5180466235752073  0.2499984713626448
 -0.0000000652574323  0.9999997536216387  0.4999994546365353
  0.5000001179197567  0.5000003134547353  0.5000000285646662
  0.9999985871489998  0.4999988431310211  0.9999989235971283
  0.4819520461249930  0.7500009832817601  0.2319523492355414
  0.2319526224246593  0.4819522205941145  0.7500008707575949
  0.2500017411358604  0.2680501179231105  0.0180463477892533
  0.2680471961159264  0.0180456710625710  0.2499977262789564
  0.9819510042666270  0.7499988641466813  0.7319501869305939
  0.2499996835896609  0.7680489417763589  0.5180483343173437
  0.7319510239223366  0.9819538460881198  0.7500001001207839
  0.7500000418302830  0.7319510110250945  0.9819537504311319
  0.7499986918655092  0.2319526541212448  0.4819524476019573
  0.5180462402275645  0.2499992385379815  0.7680479741233238
  0.0180473906966376  0.2500007957682948  0.2680486498178895
  0.4999993013815989  0.9999984889073509  0.9999986848596458
 
  0.00000000E+00  0.00000000E+00  0.00000000E+00
  0.00000000E+00  0.00000000E+00  0.00000000E+00
  0.00000000E+00  0.00000000E+00  0.00000000E+00
  0.00000000E+00  0.00000000E+00  0.00000000E+00
  0.00000000E+00  0.00000000E+00  0.00000000E+00
  0.00000000E+00  0.00000000E+00  0.00000000E+00
  0.00000000E+00  0.00000000E+00  0.00000000E+00
  0.00000000E+00  0.00000000E+00  0.00000000E+00
  0.00000000E+00  0.00000000E+00  0.00000000E+00
  0.00000000E+00  0.00000000E+00  0.00000000E+00
  0.00000000E+00  0.00000000E+00  0.00000000E+00
  0.00000000E+00  0.00000000E+00  0.00000000E+00
  0.00000000E+00  0.00000000E+00  0.00000000E+00
  0.00000000E+00  0.00000000E+00  0.00000000E+00
  0.00000000E+00  0.00000000E+00  0.00000000E+00
  0.00000000E+00  0.00000000E+00  0.00000000E+00
  0.00000000E+00  0.00000000E+00  0.00000000E+00
  0.00000000E+00  0.00000000E+00  0.00000000E+00
  0.00000000E+00  0.00000000E+00  0.00000000E+00
  0.00000000E+00  0.00000000E+00  0.00000000E+00
  0.00000000E+00  0.00000000E+00  0.00000000E+00
  0.00000000E+00  0.00000000E+00  0.00000000E+00
  0.00000000E+00  0.00000000E+00  0.00000000E+00
  0.00000000E+00  0.00000000E+00  0.00000000E+00
  0.00000000E+00  0.00000000E+00  0.00000000E+00
  0.00000000E+00  0.00000000E+00  0.00000000E+00
  0.00000000E+00  0.00000000E+00  0.00000000E+00
  0.00000000E+00  0.00000000E+00  0.00000000E+00
  0.00000000E+00  0.00000000E+00  0.00000000E+00
  0.00000000E+00  0.00000000E+00  0.00000000E+00
  0.00000000E+00  0.00000000E+00  0.00000000E+00
  0.00000000E+00  0.00000000E+00  0.00000000E+00
  0.00000000E+00  0.00000000E+00  0.00000000E+00
  0.00000000E+00  0.00000000E+00  0.00000000E+00
  0.00000000E+00  0.00000000E+00  0.00000000E+00
  0.00000000E+00  0.00000000E+00  0.00000000E+00
  0.00000000E+00  0.00000000E+00  0.00000000E+00
  0.00000000E+00  0.00000000E+00  0.00000000E+00
  0.00000000E+00  0.00000000E+00  0.00000000E+00
  0.00000000E+00  0.00000000E+00  0.00000000E+00
  0.00000000E+00  0.00000000E+00  0.00000000E+00
  0.00000000E+00  0.00000000E+00  0.00000000E+00
  0.00000000E+00  0.00000000E+00  0.00000000E+00
  0.00000000E+00  0.00000000E+00  0.00000000E+00
  0.00000000E+00  0.00000000E+00  0.00000000E+00
  0.00000000E+00  0.00000000E+00  0.00000000E+00
  0.00000000E+00  0.00000000E+00  0.00000000E+00
  0.00000000E+00  0.00000000E+00  0.00000000E+00
