Li4 Ti2 O6                              
   1.00000000000000     
     4.9996560329112940   -0.0136138125494515   -0.0077647959882194
    -2.3609280303971305    4.4071265716559171   -0.0077647959882193
     0.9576227184700872    1.5944529439744937    4.6654187304820232
   Li   Ti   O 
     4     2     6
Direct
  0.9184270900094091  0.0815728949905932  0.7500000000000000
  0.2416285667864528  0.7583714032135447  0.7500000000000000
  0.0815728949905932  0.9184270900094091  0.2500000000000000
  0.7583714032135447  0.2416285667864528  0.2500000000000000
  0.5888867533347693  0.4111132466652307  0.7500000000000000
  0.4111132466652307  0.5888867533347693  0.2500000000000000
  0.6519831723158802  0.8021489456461666  0.4899921467369950
  0.3480168576841223  0.1978510843538288  0.5100078232630096
  0.1978510843538288  0.3480168576841223  0.0100078452630115
  0.0000000000000000  0.5000000000000000  0.5000000000000000
  0.8021489456461666  0.6519831723158802  0.9899921767369904
  0.5000000000000000  0.0000000000000000  0.0000000000000000
 
  0.00000000E+00  0.00000000E+00  0.00000000E+00
  0.00000000E+00  0.00000000E+00  0.00000000E+00
  0.00000000E+00  0.00000000E+00  0.00000000E+00
  0.00000000E+00  0.00000000E+00  0.00000000E+00
  0.00000000E+00  0.00000000E+00  0.00000000E+00
  0.00000000E+00  0.00000000E+00  0.00000000E+00
  0.00000000E+00  0.00000000E+00  0.00000000E+00
  0.00000000E+00  0.00000000E+00  0.00000000E+00
  0.00000000E+00  0.00000000E+00  0.00000000E+00
  0.00000000E+00  0.00000000E+00  0.00000000E+00
  0.00000000E+00  0.00000000E+00  0.00000000E+00
  0.00000000E+00  0.00000000E+00  0.00000000E+00
