Li2 P2 N4                               
   1.00000000000000     
     4.5086911822673734    0.0000000000000001    0.0000000136500956
     0.0000000000000001    4.5086907103239318    0.0000000003759175
    -2.2543447551632596   -2.2543453321397093    3.6532242948915448
   Li   P    N 
     2     2     4
Direct
  0.5000000000000000  0.5000000000000000  0.0000000000000000
  0.7500000000000000  0.2500000000000000  0.5000000000000000
  0.0000000000000000  0.0000000000000000  0.0000000000000000
  0.2500000000000000  0.7500000000000000  0.5000000000000000
  0.2968321003054015  0.3749999999990550  0.2499999999981171
  0.9531678996945985  0.8750000000009450  0.2500000000018829
  0.1250000000000284  0.7031678996939448  0.7500000000000497
  0.6249999999999716  0.0468321083060559  0.7499999999999503
 
  0.00000000E+00  0.00000000E+00  0.00000000E+00
  0.00000000E+00  0.00000000E+00  0.00000000E+00
  0.00000000E+00  0.00000000E+00  0.00000000E+00
  0.00000000E+00  0.00000000E+00  0.00000000E+00
  0.00000000E+00  0.00000000E+00  0.00000000E+00
  0.00000000E+00  0.00000000E+00  0.00000000E+00
  0.00000000E+00  0.00000000E+00  0.00000000E+00
  0.00000000E+00  0.00000000E+00  0.00000000E+00
