Li2 Si4 N6                              
   1.00000000000000     
     4.7898490320208875    0.0000000000000000    0.0000000000000000
     0.0000000000000000    5.2891996811132520   -0.0000000020632824
     0.0000000000000000   -2.6446010982216599    4.6061770419280021
   Li   Si   N 
     2     4     6
Direct
  0.0026993904963888  0.6595883271483274  0.9999999999997087
  0.5026993624963865  0.3404116428516701  0.0000000000002913
  0.0128508891903962  0.9987016994354860  0.6692677114897734
  0.5128509001904007  0.0012982895645166  0.3307322885102266
  0.5128509001904007  0.6705639850545992  0.6692677114900292
  0.0128508891903962  0.3294360149454008  0.3307322885099708
  0.3755279239392451  0.9442592997242159  0.6071161788750814
  0.8755279539392404  0.0557407072757812  0.3928838501249174
  0.9308239432443273  0.2784449102887621  0.0000000000000284
  0.4308239732443297  0.7215550597112355  0.9999999999999716
  0.3755279239392451  0.3371431498490338  0.3928838501246616
  0.8755279539392404  0.6628568791509650  0.6071161788753372
 
  0.00000000E+00  0.00000000E+00  0.00000000E+00
  0.00000000E+00  0.00000000E+00  0.00000000E+00
  0.00000000E+00  0.00000000E+00  0.00000000E+00
  0.00000000E+00  0.00000000E+00  0.00000000E+00
  0.00000000E+00  0.00000000E+00  0.00000000E+00
  0.00000000E+00  0.00000000E+00  0.00000000E+00
  0.00000000E+00  0.00000000E+00  0.00000000E+00
  0.00000000E+00  0.00000000E+00  0.00000000E+00
  0.00000000E+00  0.00000000E+00  0.00000000E+00
  0.00000000E+00  0.00000000E+00  0.00000000E+00
  0.00000000E+00  0.00000000E+00  0.00000000E+00
  0.00000000E+00  0.00000000E+00  0.00000000E+00
