Li2 Sc2 O4                              
   1.00000000000000     
     5.4496695717133257   -0.0219764704810601   -0.0000000012511377
     2.2600629753863277    4.9589814229110241   -0.0000000012510686
    -3.8548658983387214   -2.4685022359674806    2.9573446021230017
   Li   Sc   O 
     2     2     4
Direct
  0.0000000000000000  0.0000000000000000  0.0000000000000000
  0.7500000000000000  0.2500000000000000  0.5000000000000000
  0.2500000000000000  0.7500000000000000  0.5000000000000000
  0.5000000000000000  0.5000000000000000  0.0000000000000000
  0.2692638363884328  0.2692638363884328  0.0000000000003268
  0.0192638513884305  0.5192638663884352  0.5000000000003268
  0.7307361336115648  0.7307361336115648  0.9999999999996732
  0.4807361636115672  0.9807361336115648  0.4999999999996732
 
  0.00000000E+00  0.00000000E+00  0.00000000E+00
  0.00000000E+00  0.00000000E+00  0.00000000E+00
  0.00000000E+00  0.00000000E+00  0.00000000E+00
  0.00000000E+00  0.00000000E+00  0.00000000E+00
  0.00000000E+00  0.00000000E+00  0.00000000E+00
  0.00000000E+00  0.00000000E+00  0.00000000E+00
  0.00000000E+00  0.00000000E+00  0.00000000E+00
  0.00000000E+00  0.00000000E+00  0.00000000E+00
