Li2 Sc2 Si4 O12                         
   1.00000000000000     
     6.6504350065107136   -0.0272340071038812   -0.0155148552393596
     0.5888166032784573    6.6243733646789016   -0.0155148552391620
     1.3795578408280709    1.2571928450794720    5.0347875662661083
   Li   Sc   Si   O 
     2     2     4    12
Direct
  0.7533119569283073  0.2466880280716950  0.2500000000000000
  0.2466880280716950  0.7533119569283073  0.7500000000000000
  0.1062706598053254  0.8937293701946771  0.2500000000000000
  0.8937293701946771  0.1062706598053254  0.7500000000000000
  0.2127687176322794  0.3867182577964670  0.2252663864591611
  0.7872312823677206  0.6132817422035330  0.7747336135408389
  0.3867182577964670  0.2127687176322794  0.7252663864591611
  0.6132817422035330  0.7872312823677206  0.2747336135408389
  0.6311906838207832  0.6569767257243555  0.0472544837200388
  0.6569767257243555  0.6311906838207832  0.5472544797200456
  0.3688093161792168  0.3430233042756470  0.9527455202799544
  0.3430233042756470  0.3688093161792168  0.4527455202799544
  0.2047404509182513  0.0358507818745011  0.8434971344204527
  0.8774686719818376  0.3782709929549455  0.8513583457021170
  0.7952595490817487  0.9641492411255044  0.1565028505795496
  0.0358507818745011  0.2047404509182513  0.3434971344204527
  0.9641492411255044  0.7952595490817487  0.6565028655795473
  0.1225312990181635  0.6217290070450545  0.1486416242978805
  0.3782709929549455  0.8774686719818376  0.3513583757021195
  0.6217290070450545  0.1225312990181635  0.6486416542978830
 
  0.00000000E+00  0.00000000E+00  0.00000000E+00
  0.00000000E+00  0.00000000E+00  0.00000000E+00
  0.00000000E+00  0.00000000E+00  0.00000000E+00
  0.00000000E+00  0.00000000E+00  0.00000000E+00
  0.00000000E+00  0.00000000E+00  0.00000000E+00
  0.00000000E+00  0.00000000E+00  0.00000000E+00
  0.00000000E+00  0.00000000E+00  0.00000000E+00
  0.00000000E+00  0.00000000E+00  0.00000000E+00
  0.00000000E+00  0.00000000E+00  0.00000000E+00
  0.00000000E+00  0.00000000E+00  0.00000000E+00
  0.00000000E+00  0.00000000E+00  0.00000000E+00
  0.00000000E+00  0.00000000E+00  0.00000000E+00
  0.00000000E+00  0.00000000E+00  0.00000000E+00
  0.00000000E+00  0.00000000E+00  0.00000000E+00
  0.00000000E+00  0.00000000E+00  0.00000000E+00
  0.00000000E+00  0.00000000E+00  0.00000000E+00
  0.00000000E+00  0.00000000E+00  0.00000000E+00
  0.00000000E+00  0.00000000E+00  0.00000000E+00
  0.00000000E+00  0.00000000E+00  0.00000000E+00
  0.00000000E+00  0.00000000E+00  0.00000000E+00
