Li8 Ti10 O24                            
   1.00000000000000     
     5.9115877955910845   -0.0010127590231780    0.0014314614584344
     0.0186169976397460    5.9115556807710394    0.0014314475198682
     2.8828200370941031    2.8732478294076707   12.5539785499247269
   Li   Ti   O 
     8    10    24
Direct
  0.3014981712462941  0.0370212517270545  0.9161652690528115
  0.6270929859076020  0.3729057920924177  0.2499999849997820
  0.0370227717269955  0.3014977842464006  0.4161652690529110
  0.9629795042730080  0.6985012617535986  0.5838346109470933
  0.4999998810000008  0.0000001900000015  0.5000000000000000
  0.3729067460924043  0.6270944159075853  0.7499998210002232
  0.6985012617536981  0.9629784312729441  0.0838353709471917
  0.9999998210000030  0.5000000599999979  0.0000002499999994
  0.1572287847108953  0.6656747040939024  0.1623326293877909
  0.1702380453706809  0.1617367411636863  0.6573362413290909
  0.5000001189999992  0.5000016090000017  0.0000006799999994
  0.6656771470941223  0.1572282337110238  0.6623304093877636
  0.8382684738360027  0.8297599586294240  0.8426624466709214
  0.8427685182891054  0.3343217199061002  0.8376695306122031
  0.8297613886293220  0.8382682948363112  0.3426629836709054
  0.1617330611639929  0.1702370613705781  0.1573366733290769
  0.3343226739058807  0.8427712602889770  0.3376694116122323
  0.5000025630000025  0.4999998509999983  0.4999991660000020
  0.0887667211390450  0.6168919267797079  0.3236884023829845
  0.2604635228308538  0.2585066431363714  0.5095600872701738
  0.4132302435630280  0.9486042756689059  0.6687226086656608
  0.5825279584000427  0.6015176380969933  0.3411245561555418
  0.7257455117094977  0.2579639834685281  0.5116739895509070
  0.6168900197798095  0.0887643961390978  0.8236872393827070
  0.6015146580967681  0.5825252764003750  0.8411263141554741
  0.7420353315316461  0.2742539222901641  0.9883250574493090
  0.7414942808641030  0.7395364481687778  0.9904394357298187
  0.9140453600801237  0.9365845823217285  0.6718064161576436
  0.0513956573310992  0.5867680284368504  0.8312770933345419
  0.0634156486784150  0.0859546259195056  0.8281934648424851
  0.9486046926689014  0.4132301245631496  0.1687236966654595
  0.9365842843215830  0.9140446440804979  0.1718069071575172
  0.0859550879198707  0.0634162076782658  0.3281933758423605
  0.2579640724683472  0.7257446777098409  0.0116763495506902
  0.2585060761359017  0.2604644168312191  0.0095602662701779
  0.3831086992201946  0.9112339048609002  0.1763117916172874
  0.3984826899032328  0.4174722795996288  0.1588751008445257
  0.2742553822905052  0.7420366425314739  0.4883241034490879
  0.5867686834369721  0.0513967373310962  0.3312768253343350
  0.4174749315999549  0.3984852229030054  0.6588736258444570
  0.7395362691691503  0.7414948178636322  0.4904394657298283
  0.9112342028609604  0.3831089072202900  0.6763119256170143
 
  0.00000000E+00  0.00000000E+00  0.00000000E+00
  0.00000000E+00  0.00000000E+00  0.00000000E+00
  0.00000000E+00  0.00000000E+00  0.00000000E+00
  0.00000000E+00  0.00000000E+00  0.00000000E+00
  0.00000000E+00  0.00000000E+00  0.00000000E+00
  0.00000000E+00  0.00000000E+00  0.00000000E+00
  0.00000000E+00  0.00000000E+00  0.00000000E+00
  0.00000000E+00  0.00000000E+00  0.00000000E+00
  0.00000000E+00  0.00000000E+00  0.00000000E+00
  0.00000000E+00  0.00000000E+00  0.00000000E+00
  0.00000000E+00  0.00000000E+00  0.00000000E+00
  0.00000000E+00  0.00000000E+00  0.00000000E+00
  0.00000000E+00  0.00000000E+00  0.00000000E+00
  0.00000000E+00  0.00000000E+00  0.00000000E+00
  0.00000000E+00  0.00000000E+00  0.00000000E+00
  0.00000000E+00  0.00000000E+00  0.00000000E+00
  0.00000000E+00  0.00000000E+00  0.00000000E+00
  0.00000000E+00  0.00000000E+00  0.00000000E+00
  0.00000000E+00  0.00000000E+00  0.00000000E+00
  0.00000000E+00  0.00000000E+00  0.00000000E+00
  0.00000000E+00  0.00000000E+00  0.00000000E+00
  0.00000000E+00  0.00000000E+00  0.00000000E+00
  0.00000000E+00  0.00000000E+00  0.00000000E+00
  0.00000000E+00  0.00000000E+00  0.00000000E+00
  0.00000000E+00  0.00000000E+00  0.00000000E+00
  0.00000000E+00  0.00000000E+00  0.00000000E+00
  0.00000000E+00  0.00000000E+00  0.00000000E+00
  0.00000000E+00  0.00000000E+00  0.00000000E+00
  0.00000000E+00  0.00000000E+00  0.00000000E+00
  0.00000000E+00  0.00000000E+00  0.00000000E+00
  0.00000000E+00  0.00000000E+00  0.00000000E+00
  0.00000000E+00  0.00000000E+00  0.00000000E+00
  0.00000000E+00  0.00000000E+00  0.00000000E+00
  0.00000000E+00  0.00000000E+00  0.00000000E+00
  0.00000000E+00  0.00000000E+00  0.00000000E+00
  0.00000000E+00  0.00000000E+00  0.00000000E+00
  0.00000000E+00  0.00000000E+00  0.00000000E+00
  0.00000000E+00  0.00000000E+00  0.00000000E+00
  0.00000000E+00  0.00000000E+00  0.00000000E+00
  0.00000000E+00  0.00000000E+00  0.00000000E+00
  0.00000000E+00  0.00000000E+00  0.00000000E+00
  0.00000000E+00  0.00000000E+00  0.00000000E+00
