Li4 Sc4 Si4 O16                         
   1.00000000000000     
     4.8066157121249322    0.0000000000000000    0.0000000000000000
     0.0000000000000000    5.9662411693083302    0.0000000000000000
     0.0000000000000000    0.0000000000000000   10.4224851322812651
   Li   Sc   Si   O 
     4     4     4    16
Direct
 -0.0000000000000000  0.0000000000000000  0.0000000000000000
  0.5000000000000000  0.0000000000000000  0.5000000000000000
 -0.0000000000000000  0.5000000000000000  0.0000000000000000
  0.5000000000000000  0.5000000000000000  0.5000000000000000
  0.5055266409537841  0.2500000000000000  0.2253917092874803
  0.9944733590462159  0.2500000000000000  0.7253917092874802
  0.4944733590462160  0.7500000000000000  0.7746082907125198
  0.0055266509537849  0.7500000000000000  0.2746082907125197
  0.5667506291065004  0.7500000000000000  0.0909030480245582
  0.4332493708934996  0.2500000000000000  0.9090969439754412
  0.9332493708934996  0.7500000000000000  0.5909030560245588
  0.0667506291065004  0.2500000000000000  0.4090969439754412
  0.7823089723113376  0.5379128828762894  0.6688493150253386
  0.2176910126886648  0.4620871461237094  0.3311506849746614
  0.7176910276886624  0.5379128828762894  0.1688493300253363
  0.7823089723113376  0.9620871171237106  0.6688493150253386
  0.2823089723113376  0.0379128568762872  0.8311506849746614
  0.7689867331503745  0.2500000000000000  0.9008578356130785
  0.2823089723113376  0.4620871461237094  0.8311506849746614
  0.2176910126886648  0.0379128568762872  0.3311506849746614
  0.2310132818496304  0.7500000000000000  0.0991421423869267
  0.7310132668496255  0.2500000000000000  0.4008578656130739
  0.7999151998223883  0.7500000000000000  0.4467451222555165
  0.2689867031503719  0.7500000000000000  0.5991421643869215
  0.7000848001776117  0.7500000000000000  0.9467451222555165
  0.2999151698223929  0.2500000000000000  0.0532548667444861
  0.2000848301776071  0.2500000000000000  0.5532548777444835
  0.7176910276886624  0.9620871171237106  0.1688493300253363
 
  0.00000000E+00  0.00000000E+00  0.00000000E+00
  0.00000000E+00  0.00000000E+00  0.00000000E+00
  0.00000000E+00  0.00000000E+00  0.00000000E+00
  0.00000000E+00  0.00000000E+00  0.00000000E+00
  0.00000000E+00  0.00000000E+00  0.00000000E+00
  0.00000000E+00  0.00000000E+00  0.00000000E+00
  0.00000000E+00  0.00000000E+00  0.00000000E+00
  0.00000000E+00  0.00000000E+00  0.00000000E+00
  0.00000000E+00  0.00000000E+00  0.00000000E+00
  0.00000000E+00  0.00000000E+00  0.00000000E+00
  0.00000000E+00  0.00000000E+00  0.00000000E+00
  0.00000000E+00  0.00000000E+00  0.00000000E+00
  0.00000000E+00  0.00000000E+00  0.00000000E+00
  0.00000000E+00  0.00000000E+00  0.00000000E+00
  0.00000000E+00  0.00000000E+00  0.00000000E+00
  0.00000000E+00  0.00000000E+00  0.00000000E+00
  0.00000000E+00  0.00000000E+00  0.00000000E+00
  0.00000000E+00  0.00000000E+00  0.00000000E+00
  0.00000000E+00  0.00000000E+00  0.00000000E+00
  0.00000000E+00  0.00000000E+00  0.00000000E+00
  0.00000000E+00  0.00000000E+00  0.00000000E+00
  0.00000000E+00  0.00000000E+00  0.00000000E+00
  0.00000000E+00  0.00000000E+00  0.00000000E+00
  0.00000000E+00  0.00000000E+00  0.00000000E+00
  0.00000000E+00  0.00000000E+00  0.00000000E+00
  0.00000000E+00  0.00000000E+00  0.00000000E+00
  0.00000000E+00  0.00000000E+00  0.00000000E+00
  0.00000000E+00  0.00000000E+00  0.00000000E+00
