Li5 Nb1 O5                              
   1.00000000000000     
     5.2371390412179668   -0.0235885253038521   -0.0030970009780141
     3.6996533797480304    3.7068513087035995   -0.0030970009775123
     1.7233284588747815    0.7102628411587142    5.4789958575225892
   Li   Nb   O 
     5     1     5
Direct
  0.7111135007904892  0.7111135007904892  0.6553492517558439
  0.6912511348492245  0.6912511348492245  0.1397995371485763
  0.0000000000000000  0.0000000000000000  0.5000000000000000
  0.3087488351507730  0.3087488351507730  0.8602004778514285
  0.2888864992095108  0.2888864992095108  0.3446507182441536
  0.0000000000000000  0.0000000000000000  0.0000000000000000
  0.8521947927250864  0.8521947927250864  0.8238748575870716
  0.8406339689262339  0.8406339689262339  0.3216349228642414
  0.5000000000000000  0.5000000000000000  0.0000000000000000
  0.1593660020737744  0.1593660020737673  0.6783650481357597
  0.1478051922749160  0.1478051922749160  0.1761251424129284
 
  0.00000000E+00  0.00000000E+00  0.00000000E+00
  0.00000000E+00  0.00000000E+00  0.00000000E+00
  0.00000000E+00  0.00000000E+00  0.00000000E+00
  0.00000000E+00  0.00000000E+00  0.00000000E+00
  0.00000000E+00  0.00000000E+00  0.00000000E+00
  0.00000000E+00  0.00000000E+00  0.00000000E+00
  0.00000000E+00  0.00000000E+00  0.00000000E+00
  0.00000000E+00  0.00000000E+00  0.00000000E+00
  0.00000000E+00  0.00000000E+00  0.00000000E+00
  0.00000000E+00  0.00000000E+00  0.00000000E+00
  0.00000000E+00  0.00000000E+00  0.00000000E+00
