Li4 Hf2 O6                              
   1.00000000000000     
     5.2082360571274240    0.0183724364101318    0.0088511262398128
     2.4858983163820869    4.5767204342444412   -0.0088511262394150
    -1.0180922854945968    1.7047182874427906    4.9422403238444916
   Li   Hf   O 
     4     2     6
Direct
  0.5671247202929919  0.5842285656842491  0.4913186092223555
  0.2493734065284019  0.2664237624712936  0.4912968232563149
  0.4157714343157509  0.4328752797070081  0.9913185792223530
  0.7335762375287064  0.7506265634716026  0.9912968532563102
  0.9004196894204435  0.9174789515476480  0.4912944522040316
  0.0825210704523538  0.0995803035795595  0.9912944822040340
  0.2999110975888844  0.8524380848971939  0.7520585931242402
  0.1475618861028073  0.7000889324111110  0.2520585931242402
  0.9914700590868500  0.5085347271358243  0.7413042988418418
  0.6830344783480194  0.1646273835293780  0.7305282473512165
  0.4914652728641757  0.0085299309131492  0.2413042838418441
  0.8353726024706279  0.3169655516519830  0.2305282323512188
 
  0.00000000E+00  0.00000000E+00  0.00000000E+00
  0.00000000E+00  0.00000000E+00  0.00000000E+00
  0.00000000E+00  0.00000000E+00  0.00000000E+00
  0.00000000E+00  0.00000000E+00  0.00000000E+00
  0.00000000E+00  0.00000000E+00  0.00000000E+00
  0.00000000E+00  0.00000000E+00  0.00000000E+00
  0.00000000E+00  0.00000000E+00  0.00000000E+00
  0.00000000E+00  0.00000000E+00  0.00000000E+00
  0.00000000E+00  0.00000000E+00  0.00000000E+00
  0.00000000E+00  0.00000000E+00  0.00000000E+00
  0.00000000E+00  0.00000000E+00  0.00000000E+00
  0.00000000E+00  0.00000000E+00  0.00000000E+00
