Li2 Ce1 O3                              
   1.00000000000000     
     4.4908652027876323   -0.0000000001780265    0.0000000000000000
     2.2454321924815073    4.7449812185049591    0.0000000000000000
     0.0000000000000000    0.0000000000000000    3.5305027423553783
   Li   Ce   O 
     2     1     3
Direct
  0.6547530263847676  0.6904949592304703  0.5000000000000000
  0.3452469736152324  0.3095050407695297  0.5000000000000000
  0.0000000000000000  0.0000000000000000  0.0000000000000000
  0.1457848287241035  0.7084283165517604  0.5000000000000000
  0.8542151712758965  0.2915716534482442  0.5000000000000000
  0.5000000000000000  0.0000000000000000  0.0000000000000000
 
  0.00000000E+00  0.00000000E+00  0.00000000E+00
  0.00000000E+00  0.00000000E+00  0.00000000E+00
  0.00000000E+00  0.00000000E+00  0.00000000E+00
  0.00000000E+00  0.00000000E+00  0.00000000E+00
  0.00000000E+00  0.00000000E+00  0.00000000E+00
  0.00000000E+00  0.00000000E+00  0.00000000E+00
