Li5 Ta1 O5                              
   1.00000000000000     
     5.2373463017609136    0.0008015247731715    0.0047511552737173
    -3.7104853267782860    3.6962272071327842   -0.0047511552736768
    -1.7081272813797790    0.7054510730757027    5.4715294393650105
   Li   Ta   O 
     5     1     5
Direct
  0.2873929315410223  0.7126070384589752  0.6539372145064971
  0.3081023919853599  0.6918976080146401  0.1404139939262356
  0.0000000000000000  0.0000000000000000  0.5000000000000000
  0.6918976080146401  0.3081023919853599  0.8595859910737668
  0.7126070384589752  0.2873929315410223  0.3460627854935029
  0.0000000000000000  0.0000000000000000 -0.0000000000000000
  0.1467488936426259  0.8532510763573715  0.8246390359423779
  0.1577927272750990  0.8422072727249010  0.3201571610101067
  0.5000000000000000  0.5000000000000000 -0.0000000000000000
  0.8422072727249010  0.1577927272750990  0.6798428689898887
  0.8532510763573715  0.1467488936426259  0.1753609940576246
 
  0.00000000E+00  0.00000000E+00  0.00000000E+00
  0.00000000E+00  0.00000000E+00  0.00000000E+00
  0.00000000E+00  0.00000000E+00  0.00000000E+00
  0.00000000E+00  0.00000000E+00  0.00000000E+00
  0.00000000E+00  0.00000000E+00  0.00000000E+00
  0.00000000E+00  0.00000000E+00  0.00000000E+00
  0.00000000E+00  0.00000000E+00  0.00000000E+00
  0.00000000E+00  0.00000000E+00  0.00000000E+00
  0.00000000E+00  0.00000000E+00  0.00000000E+00
  0.00000000E+00  0.00000000E+00  0.00000000E+00
  0.00000000E+00  0.00000000E+00  0.00000000E+00
