Li4 Hf2 O6                              
   1.00000000000000     
     5.3280643337650773    0.0079069904681817    0.0029987883031829
    -2.6429302837659989    4.6263648343765666    0.0029987883038131
     0.9078828227913449    1.5669146148759729    4.8603222712098422
   Li   Hf   O 
     4     2     6
Direct
  0.1530579244095106  0.8469420455904869  0.0000000000000000
  0.8469420455904869  0.1530579244095106 -0.0000000000000000
  0.5000000000000000  0.5000000000000000 -0.0000000000000000
  0.0000000000000000 -0.0000000000000000  0.5000000000000000
  0.6679460024514589  0.3320539975485412  0.5000000000000000
  0.3320539975485412  0.6679460024514589  0.5000000000000000
  0.4286518211653227  0.0801919488155534  0.2653620287821608
  0.5713482088346726  0.9198080661844442  0.7346379712178392
  0.0801919488155534  0.4286518211653227  0.2653620287821608
  0.2710808889636919  0.2710808889636919  0.7420400737443640
  0.9198080661844442  0.5713482088346726  0.7346379712178392
  0.7289191110363080  0.7289191110363080  0.2579599562556386
 
  0.00000000E+00  0.00000000E+00  0.00000000E+00
  0.00000000E+00  0.00000000E+00  0.00000000E+00
  0.00000000E+00  0.00000000E+00  0.00000000E+00
  0.00000000E+00  0.00000000E+00  0.00000000E+00
  0.00000000E+00  0.00000000E+00  0.00000000E+00
  0.00000000E+00  0.00000000E+00  0.00000000E+00
  0.00000000E+00  0.00000000E+00  0.00000000E+00
  0.00000000E+00  0.00000000E+00  0.00000000E+00
  0.00000000E+00  0.00000000E+00  0.00000000E+00
  0.00000000E+00  0.00000000E+00  0.00000000E+00
  0.00000000E+00  0.00000000E+00  0.00000000E+00
  0.00000000E+00  0.00000000E+00  0.00000000E+00
