Li1 Al1 O2                              
   1.00000000000000     
     4.9763052074420573   -0.0023602009825772   -0.0014404543945106
     4.1904828485202614    2.6839276841684940   -0.0014404526431256
     4.1904847723492029    1.2258464271823313    2.3876282356399194
   Li   Al   O 
     1     1     2
Direct
  0.0000000000000000  0.0000000000000000  0.0000000000000000
  0.5000000000000000  0.5000000000000000  0.5000000000000000
  0.2394145303119544  0.2394145303123736  0.2394145303103485
  0.7605854996880410  0.7605854996876218  0.7605854996896468
 
  0.00000000E+00  0.00000000E+00  0.00000000E+00
  0.00000000E+00  0.00000000E+00  0.00000000E+00
  0.00000000E+00  0.00000000E+00  0.00000000E+00
  0.00000000E+00  0.00000000E+00  0.00000000E+00
