Co3 H3 O6                               
   1.00000000000000     
     5.7183976173000000    0.0000000000000000    0.0000000000000000
    -2.8591988087000000    4.9522776056000000    0.0000000000000000
     0.0000000000000000    0.0000000000000000   20.0000000000000000
   Co   O    H    Li
     8    16     8     1
Selective dynamics
Direct
  0.3333333429999996  0.1666666719999981  0.2164328100000006   F   F   F
  0.3333333429999996  0.6666666870000029  0.2164328100000006   F   F   F
  0.8333333730000021  0.1666666719999981  0.2164328100000006   F   F   F
  0.8333333730000021  0.6666666870000029  0.2164328100000006   F   F   F
  0.1666345787639045  0.3334189689144864  0.4490423077340466   T   T   T
  0.1666347159830650  0.8333653290169352  0.4490452173616575   T   T   T
  0.6666185568472756  0.3333814731527269  0.4503804368736084   T   T   T
  0.6665810610855232  0.8333654662360956  0.4490423077340466   T   T   T
  0.1666666719999981  0.3333333429999996  0.1683172580000019   F   F   F
  0.1666666719999981  0.8333333730000021  0.1683172580000019   F   F   F
  0.6666666870000029  0.3333333429999996  0.1683172580000019   F   F   F
  0.6666666870000029  0.8333333730000021  0.1683172580000019   F   F   F
  0.0000000000000000  0.0000000000000000  0.2645483310000003   F   F   F
  0.0000000000000000  0.5000000000000000  0.2645483310000003   F   F   F
  0.5000000000000000  0.0000000000000000  0.2645483310000003   F   F   F
  0.5000000000000000  0.5000000000000000  0.2645483310000003   F   F   F
  0.9999530986484331  0.0000469013515669  0.3973400998221734   T   T   T
  0.0048536381904398  0.5025024034691015  0.3955014961709296   T   T   T
  0.4974975965308985  0.9951463618095602  0.3955014961709296   T   T   T
  0.4975039034267255  0.5024960965732745  0.3955004972868750   T   T   T
  0.3337962575956936  0.1669718093830568  0.4947753762749869   T   T   T
  0.3332839349959826  0.6667160950040198  0.4941716402148089   T   T   T
  0.8330297265167275  0.1669703184832727  0.4947745883988688   T   T   T
  0.8330282356169434  0.6662037724043088  0.4947753762749869   T   T   T
  0.1666666719999981  0.3333333429999996  0.1082164050000003   F   F   F
  0.1666666719999981  0.8333333730000021  0.1082164050000003   F   F   F
  0.6666666870000029  0.3333333429999996  0.1082164050000003   F   F   F
  0.6666666870000029  0.8333333730000021  0.1082164050000003   F   F   F
  0.9999648934665828  0.0000351065334172  0.3469903101490956   T   T   T
  0.0484838593121140  0.5243002811217536  0.3464682298642785   T   T   T
  0.4756997188782464  0.9515161406878860  0.3464682298642785   T   T   T
  0.4757176977555631  0.5242823022444369  0.3464646853000133   T   T   T
  0.6666333202538723  0.3333666797461277  0.3278964855340973   T   T   T
 
  0.00000000E+00  0.00000000E+00  0.00000000E+00
  0.00000000E+00  0.00000000E+00  0.00000000E+00
  0.00000000E+00  0.00000000E+00  0.00000000E+00
  0.00000000E+00  0.00000000E+00  0.00000000E+00
  0.00000000E+00  0.00000000E+00  0.00000000E+00
  0.00000000E+00  0.00000000E+00  0.00000000E+00
  0.00000000E+00  0.00000000E+00  0.00000000E+00
  0.00000000E+00  0.00000000E+00  0.00000000E+00
  0.00000000E+00  0.00000000E+00  0.00000000E+00
  0.00000000E+00  0.00000000E+00  0.00000000E+00
  0.00000000E+00  0.00000000E+00  0.00000000E+00
  0.00000000E+00  0.00000000E+00  0.00000000E+00
  0.00000000E+00  0.00000000E+00  0.00000000E+00
  0.00000000E+00  0.00000000E+00  0.00000000E+00
  0.00000000E+00  0.00000000E+00  0.00000000E+00
  0.00000000E+00  0.00000000E+00  0.00000000E+00
  0.00000000E+00  0.00000000E+00  0.00000000E+00
  0.00000000E+00  0.00000000E+00  0.00000000E+00
  0.00000000E+00  0.00000000E+00  0.00000000E+00
  0.00000000E+00  0.00000000E+00  0.00000000E+00
  0.00000000E+00  0.00000000E+00  0.00000000E+00
  0.00000000E+00  0.00000000E+00  0.00000000E+00
  0.00000000E+00  0.00000000E+00  0.00000000E+00
  0.00000000E+00  0.00000000E+00  0.00000000E+00
  0.00000000E+00  0.00000000E+00  0.00000000E+00
  0.00000000E+00  0.00000000E+00  0.00000000E+00
  0.00000000E+00  0.00000000E+00  0.00000000E+00
  0.00000000E+00  0.00000000E+00  0.00000000E+00
  0.00000000E+00  0.00000000E+00  0.00000000E+00
  0.00000000E+00  0.00000000E+00  0.00000000E+00
  0.00000000E+00  0.00000000E+00  0.00000000E+00
  0.00000000E+00  0.00000000E+00  0.00000000E+00
  0.00000000E+00  0.00000000E+00  0.00000000E+00
