Co3 H3 O6                               
   1.00000000000000     
     5.7183976173000000    0.0000000000000000    0.0000000000000000
    -2.8591988087000000    4.9522776056000000    0.0000000000000000
     0.0000000000000000    0.0000000000000000   20.0000000000000000
   Co   O    H    Li
     8    16     8     1
Selective dynamics
Direct
  0.3333333429999996  0.1666666719999981  0.2164328100000006   F   F   F
  0.3333333429999996  0.6666666870000029  0.2164328100000006   F   F   F
  0.8333333730000021  0.1666666719999981  0.2164328100000006   F   F   F
  0.8333333730000021  0.6666666870000029  0.2164328100000006   F   F   F
  0.1646629485432953  0.3323314812716518  0.4426627020462490   T   T   T
  0.1666666719999981  0.8333333730000021  0.4456065588754612   T   T   T
  0.6676685487283507  0.3323314812716518  0.4426627020462490   T   T   T
  0.6676685487283507  0.8353370964567048  0.4426627020462490   T   T   T
  0.1666666719999981  0.3333333429999996  0.1683172580000019   F   F   F
  0.1666666719999981  0.8333333730000021  0.1683172580000019   F   F   F
  0.6666666870000029  0.3333333429999996  0.1683172580000019   F   F   F
  0.6666666870000029  0.8333333730000021  0.1683172580000019   F   F   F
  0.0000000000000000  0.0000000000000000  0.2645483310000003   F   F   F
  0.0000000000000000  0.5000000000000000  0.2645483310000003   F   F   F
  0.5000000000000000  0.0000000000000000  0.2645483310000003   F   F   F
  0.5000000000000000  0.5000000000000000  0.2645483310000003   F   F   F
  0.0018762527395211  0.9981237472604789  0.3938059367881763   T   T   T
  0.0018762527395211  0.5037525054790422  0.3938059367881763   T   T   T
  0.4962474945209578  0.9981237472604789  0.3938059367881763   T   T   T
  0.5000000000000000  0.5000000000000000  0.3929053728354859   T   T   T
  0.3363434611936498  0.1726869083873055  0.4918487399450981   T   T   T
  0.3363434611936498  0.6636565688063527  0.4918487399450981   T   T   T
  0.8333333730000021  0.1666666719999981  0.4899578922241972   T   T   T
  0.8273131366126947  0.6636565688063527  0.4918487399450981   T   T   T
  0.1666666719999981  0.3333333429999996  0.1082164050000003   F   F   F
  0.1666666719999981  0.8333333730000021  0.1082164050000003   F   F   F
  0.6666666870000029  0.3333333429999996  0.1082164050000003   F   F   F
  0.6666666870000029  0.8333333730000021  0.1082164050000003   F   F   F
  0.0029882707558215  0.9970117292441785  0.3429245904495488   T   T   T
  0.0029882707558215  0.5059765415116431  0.3429245904495488   T   T   T
  0.4940234584883569  0.9970117292441785  0.3429245904495488   T   T   T
  0.5000000000000000  0.5000000000000000  0.3421108570620248   T   T   T
  0.5000000000000000  0.5000000000000000  0.5438086495875964   T   T   T
 
  0.00000000E+00  0.00000000E+00  0.00000000E+00
  0.00000000E+00  0.00000000E+00  0.00000000E+00
  0.00000000E+00  0.00000000E+00  0.00000000E+00
  0.00000000E+00  0.00000000E+00  0.00000000E+00
  0.00000000E+00  0.00000000E+00  0.00000000E+00
  0.00000000E+00  0.00000000E+00  0.00000000E+00
  0.00000000E+00  0.00000000E+00  0.00000000E+00
  0.00000000E+00  0.00000000E+00  0.00000000E+00
  0.00000000E+00  0.00000000E+00  0.00000000E+00
  0.00000000E+00  0.00000000E+00  0.00000000E+00
  0.00000000E+00  0.00000000E+00  0.00000000E+00
  0.00000000E+00  0.00000000E+00  0.00000000E+00
  0.00000000E+00  0.00000000E+00  0.00000000E+00
  0.00000000E+00  0.00000000E+00  0.00000000E+00
  0.00000000E+00  0.00000000E+00  0.00000000E+00
  0.00000000E+00  0.00000000E+00  0.00000000E+00
  0.00000000E+00  0.00000000E+00  0.00000000E+00
  0.00000000E+00  0.00000000E+00  0.00000000E+00
  0.00000000E+00  0.00000000E+00  0.00000000E+00
  0.00000000E+00  0.00000000E+00  0.00000000E+00
  0.00000000E+00  0.00000000E+00  0.00000000E+00
  0.00000000E+00  0.00000000E+00  0.00000000E+00
  0.00000000E+00  0.00000000E+00  0.00000000E+00
  0.00000000E+00  0.00000000E+00  0.00000000E+00
  0.00000000E+00  0.00000000E+00  0.00000000E+00
  0.00000000E+00  0.00000000E+00  0.00000000E+00
  0.00000000E+00  0.00000000E+00  0.00000000E+00
  0.00000000E+00  0.00000000E+00  0.00000000E+00
  0.00000000E+00  0.00000000E+00  0.00000000E+00
  0.00000000E+00  0.00000000E+00  0.00000000E+00
  0.00000000E+00  0.00000000E+00  0.00000000E+00
  0.00000000E+00  0.00000000E+00  0.00000000E+00
  0.00000000E+00  0.00000000E+00  0.00000000E+00
