Ba2 Mn16 O32                            
   1.00000000000000     
     9.7754162138741787    0.0000000000000000    0.0765485430974290
     0.0000000000000000    5.9408263181406609    0.0000000000000000
    -9.5682823806271653    0.0000000000000000    9.9089918644700266
   Ba   Mn   O    Li
     2    16    32     1
Direct
  0.5000000000000000  0.1269354401872675  0.2500000000000000
  0.5000000000000000  0.8512958082230782  0.7500000000000000
  0.0163020204263091  0.1268052492501610  0.1014329539182910
  0.9795769532916125  0.8766783135269591  0.8996618710899966
  0.9836979945736957  0.1268052492501610  0.3985670380817083
  0.0204230617083923  0.8766783135269591  0.6003381289100034
  0.0232356129371496  0.3749840045288266  0.6015477722928253
  0.9709890511714079  0.6258163506587096  0.3925287152061543
  0.9767643850628502  0.3749840045288266  0.8984522277071747
  0.0290109468285920  0.6258163506587096  0.1074712847938457
  0.3173418669277766  0.3755876282111004  0.4175925000358021
  0.6841093850831470  0.6253257134977659  0.5860196786988112
  0.6826581330722234  0.3755876282111004  0.0824074999641979
  0.3158906149168530  0.6253257134977659  0.9139803213011888
  0.3148608337744818  0.1264469120919713  0.9093469138037307
  0.6828282656981841  0.8772095066211918  0.0839139903251223
  0.6851391662255182  0.1264469120919713  0.5906530861962693
  0.3171717343018159  0.8772095066211918  0.4160860096748777
  0.1054091911135657  0.3747671253572591  0.3971073520201500
  0.8923897542381667  0.6251631574203245  0.5969566290932491
  0.8945908158864455  0.3747671253572591  0.1028926479798500
  0.1076102527618374  0.6251631574203245  0.9030433709067509
  0.1068042442065860  0.1263848277139985  0.9009190095425339
  0.8913699433682822  0.8785363081397719  0.1002755359328305
  0.8931957777934159  0.1263848277139985  0.5990809904574661
  0.1086300786317196  0.8785363081397719  0.3997244640671695
  0.1457005450635833  0.3625603404188809  0.0918226386647660
  0.8535998121955757  0.6254823532006881  0.9119034084793753
  0.8542994549364167  0.3625603404188809  0.4081773543352369
  0.1464001878044243  0.6254823532006881  0.5880965915206247
  0.1584512215984475  0.1272183341120154  0.5948025735845661
  0.8542863093323305  0.8882505589045167  0.4070381780527228
  0.8415487784015525  0.1272183341120154  0.9051974264154339
  0.1457136906676766  0.8882505589045167  0.0929618219472772
  0.2265605356177787  0.3785848003040044  0.7913498590595509
  0.7702021853396630  0.6258560898215109  0.2024813869434468
  0.7734394643822213  0.3785848003040044  0.7086501409404491
  0.2297978146603370  0.6258560898215109  0.2975186130565532
  0.2291234282461687  0.1268194793342090  0.2951257520847221
  0.7726367210437886  0.8732113256346352  0.7096844982682100
  0.7708765567538336  0.1268194793342090  0.2048742479152779
  0.2273632639562138  0.8732113256346352  0.7903155017317900
  0.4439101446422455  0.3711662458258758  0.0420984620626115
  0.5625459143671705  0.6246504829536406  0.9521037124004792
  0.5560898853577427  0.3711662458258758  0.4579015269373841
  0.4374541156328178  0.6246504829536406  0.5478962875995208
  0.4373338815937942  0.1273493153795897  0.5498049257512605
  0.5582230296684827  0.8806752315869844  0.4590216661212878
  0.5626661184062058  0.1273493153795897  0.9501950742487395
  0.4417769703315173  0.8806752315869844  0.0409783338787122
  0.5000000000000000  0.3383193666004800  0.7500000000000000
 
  0.00000000E+00  0.00000000E+00  0.00000000E+00
  0.00000000E+00  0.00000000E+00  0.00000000E+00
  0.00000000E+00  0.00000000E+00  0.00000000E+00
  0.00000000E+00  0.00000000E+00  0.00000000E+00
  0.00000000E+00  0.00000000E+00  0.00000000E+00
  0.00000000E+00  0.00000000E+00  0.00000000E+00
  0.00000000E+00  0.00000000E+00  0.00000000E+00
  0.00000000E+00  0.00000000E+00  0.00000000E+00
  0.00000000E+00  0.00000000E+00  0.00000000E+00
  0.00000000E+00  0.00000000E+00  0.00000000E+00
  0.00000000E+00  0.00000000E+00  0.00000000E+00
  0.00000000E+00  0.00000000E+00  0.00000000E+00
  0.00000000E+00  0.00000000E+00  0.00000000E+00
  0.00000000E+00  0.00000000E+00  0.00000000E+00
  0.00000000E+00  0.00000000E+00  0.00000000E+00
  0.00000000E+00  0.00000000E+00  0.00000000E+00
  0.00000000E+00  0.00000000E+00  0.00000000E+00
  0.00000000E+00  0.00000000E+00  0.00000000E+00
  0.00000000E+00  0.00000000E+00  0.00000000E+00
  0.00000000E+00  0.00000000E+00  0.00000000E+00
  0.00000000E+00  0.00000000E+00  0.00000000E+00
  0.00000000E+00  0.00000000E+00  0.00000000E+00
  0.00000000E+00  0.00000000E+00  0.00000000E+00
  0.00000000E+00  0.00000000E+00  0.00000000E+00
  0.00000000E+00  0.00000000E+00  0.00000000E+00
  0.00000000E+00  0.00000000E+00  0.00000000E+00
  0.00000000E+00  0.00000000E+00  0.00000000E+00
  0.00000000E+00  0.00000000E+00  0.00000000E+00
  0.00000000E+00  0.00000000E+00  0.00000000E+00
  0.00000000E+00  0.00000000E+00  0.00000000E+00
  0.00000000E+00  0.00000000E+00  0.00000000E+00
  0.00000000E+00  0.00000000E+00  0.00000000E+00
  0.00000000E+00  0.00000000E+00  0.00000000E+00
  0.00000000E+00  0.00000000E+00  0.00000000E+00
  0.00000000E+00  0.00000000E+00  0.00000000E+00
  0.00000000E+00  0.00000000E+00  0.00000000E+00
  0.00000000E+00  0.00000000E+00  0.00000000E+00
  0.00000000E+00  0.00000000E+00  0.00000000E+00
  0.00000000E+00  0.00000000E+00  0.00000000E+00
  0.00000000E+00  0.00000000E+00  0.00000000E+00
  0.00000000E+00  0.00000000E+00  0.00000000E+00
  0.00000000E+00  0.00000000E+00  0.00000000E+00
  0.00000000E+00  0.00000000E+00  0.00000000E+00
  0.00000000E+00  0.00000000E+00  0.00000000E+00
  0.00000000E+00  0.00000000E+00  0.00000000E+00
  0.00000000E+00  0.00000000E+00  0.00000000E+00
  0.00000000E+00  0.00000000E+00  0.00000000E+00
  0.00000000E+00  0.00000000E+00  0.00000000E+00
  0.00000000E+00  0.00000000E+00  0.00000000E+00
  0.00000000E+00  0.00000000E+00  0.00000000E+00
  0.00000000E+00  0.00000000E+00  0.00000000E+00
