Ti8 O16                                 
   1.00000000000000     
    12.3909735007900004    0.0000000000000000    0.0630216104439156
     0.0000000000000000    3.9164311734319375    0.0000000000000000
    -1.9083215351866625    0.0000000000000000    6.3170141112957259
   Ti   O    Li
     8    16     1
Direct
  0.1022915419625932  0.0000000000000000  0.7068835495652905
  0.8977827535522707  0.0000000000000000  0.2977304368486600
  0.6007112613030827  0.5000000000000000  0.7098492038399158
  0.3919237522537458  0.5000000000000000  0.2954281850168883
  0.1974151266460069  0.0000000000000000  0.2915645627990600
  0.8009269621016628  0.0000000000000000  0.7113212144424139
  0.7101490839668116  0.5000000000000000  0.2888415106349669
  0.2998949795407384  0.5000000000000000  0.7133150141071312
  0.0615605540930630  0.0000000000000000  0.3761532590590946
  0.9419939356990454  0.0000000000000000  0.6354294443897146
  0.5536606686842447  0.5000000000000000  0.3601951931431344
  0.4378465240091813  0.5000000000000000  0.6264531660079697
  0.1374265001937971  0.0000000000000000  0.0072972154523896
  0.8569731902383779  0.0000000000000000  0.9962471269944189
  0.6325064169934009  0.5000000000000000  0.9947954875725813
  0.3624546289742341  0.5000000000000000  0.9969213231073439
  0.1366359142126115  0.5000000000000000  0.7068991909395166
  0.8771257858502111  0.5000000000000000  0.3023104620070072
  0.6287965019890152  0.0000000000000000  0.6774060668132194
  0.3680821667174143  0.0000000000000000  0.2998747441950371
  0.2353110045209732  0.5000000000000000  0.3490508950745834
  0.7611831110436853  0.5000000000000000  0.6536779670617676
  0.7413423491496616  0.0000000000000000  0.3616126725618543
  0.2629144865611863  0.0000000000000000  0.6516292767138552
  0.5623808067429863  0.0000000000000000  0.3622628796521852
 
  0.00000000E+00  0.00000000E+00  0.00000000E+00
  0.00000000E+00  0.00000000E+00  0.00000000E+00
  0.00000000E+00  0.00000000E+00  0.00000000E+00
  0.00000000E+00  0.00000000E+00  0.00000000E+00
  0.00000000E+00  0.00000000E+00  0.00000000E+00
  0.00000000E+00  0.00000000E+00  0.00000000E+00
  0.00000000E+00  0.00000000E+00  0.00000000E+00
  0.00000000E+00  0.00000000E+00  0.00000000E+00
  0.00000000E+00  0.00000000E+00  0.00000000E+00
  0.00000000E+00  0.00000000E+00  0.00000000E+00
  0.00000000E+00  0.00000000E+00  0.00000000E+00
  0.00000000E+00  0.00000000E+00  0.00000000E+00
  0.00000000E+00  0.00000000E+00  0.00000000E+00
  0.00000000E+00  0.00000000E+00  0.00000000E+00
  0.00000000E+00  0.00000000E+00  0.00000000E+00
  0.00000000E+00  0.00000000E+00  0.00000000E+00
  0.00000000E+00  0.00000000E+00  0.00000000E+00
  0.00000000E+00  0.00000000E+00  0.00000000E+00
  0.00000000E+00  0.00000000E+00  0.00000000E+00
  0.00000000E+00  0.00000000E+00  0.00000000E+00
  0.00000000E+00  0.00000000E+00  0.00000000E+00
  0.00000000E+00  0.00000000E+00  0.00000000E+00
  0.00000000E+00  0.00000000E+00  0.00000000E+00
  0.00000000E+00  0.00000000E+00  0.00000000E+00
  0.00000000E+00  0.00000000E+00  0.00000000E+00
