 32_GeS\(1\0\0)                         
   1.00000000000000     
     7.3467001915000001    0.0000000000000000    0.0000000000000000
     0.0000000000000000    8.9100999832000003    0.0000000000000000
     0.0000000000000000    0.0000000000000000   20.0000000000000000
   Ge   S    Li
    16    16     1
Selective dynamics
Direct
  0.3750000000000000  0.0658100019999992  0.2507199940000007   F   F   F
  0.3750000000000000  0.5658100249999976  0.2507199940000007   F   F   F
  0.8750000000000000  0.0658100019999992  0.2507199940000007   F   F   F
  0.8750000000000000  0.5658100249999976  0.2507199940000007   F   F   F
  0.3750000000000000  0.1781130554000612  0.5129268524278316   T   T   T
  0.3750000000000000  0.7261170569263058  0.5132128315743429   T   T   T
  0.8750000000000000  0.1998257103309697  0.5167979054071310   T   T   T
  0.8750000000000000  0.7082955540151303  0.5206604750255792   T   T   T
  0.1250000000000000  0.3158099950000022  0.1156700029999982   F   F   F
  0.1250000000000000  0.8158100249999976  0.1156700029999982   F   F   F
  0.6250000000000000  0.3158099950000022  0.1156700029999982   F   F   F
  0.6250000000000000  0.8158100249999976  0.1156700029999982   F   F   F
  0.1266706882042214  0.4448547534595306  0.3845258041007398   T   T   T
  0.1208871455615750  0.9411140652459480  0.3798778764998545   T   T   T
  0.6233293117957786  0.4448547534595306  0.3845258041007398   T   T   T
  0.6291128544384250  0.9411140652459480  0.3798778764998545   T   T   T
  0.1243039478141057  0.0089121131974252  0.5028597675481805   T   T   T
  0.1290450146589919  0.5255849871756624  0.5067853973088248   T   T   T
  0.6256960521858943  0.0089121131974252  0.5028597675481805   T   T   T
  0.6209549853410081  0.5255849871756624  0.5067853973088248   T   T   T
  0.1250000000000000  0.2461200059999982  0.2353300010000012   F   F   F
  0.1250000000000000  0.7461199760000028  0.2353300010000012   F   F   F
  0.6250000000000000  0.2461200059999982  0.2353300010000012   F   F   F
  0.6250000000000000  0.7461199760000028  0.2353300010000012   F   F   F
  0.3750000000000000  0.2583047606179392  0.3980478555293132   T   T   T
  0.3750000000000000  0.7604318995292658  0.3941408684094299   T   T   T
  0.8750000000000000  0.2622503380406229  0.3992985496671650   T   T   T
  0.8750000000000000  0.7558429882629198  0.3999492450625013   T   T   T
  0.3750000000000000  0.4961200059999982  0.1310600039999983   F   F   F
  0.3750000000000000  0.9961199760000028  0.1310600039999983   F   F   F
  0.8750000000000000  0.4961200059999982  0.1310600039999983   F   F   F
  0.8750000000000000  0.9961199760000028  0.1310600039999983   F   F   F
  0.3749996499363775  0.4288715907486633  0.5726851295450359   T   T   T
 
  0.00000000E+00  0.00000000E+00  0.00000000E+00
  0.00000000E+00  0.00000000E+00  0.00000000E+00
  0.00000000E+00  0.00000000E+00  0.00000000E+00
  0.00000000E+00  0.00000000E+00  0.00000000E+00
  0.00000000E+00  0.00000000E+00  0.00000000E+00
  0.00000000E+00  0.00000000E+00  0.00000000E+00
  0.00000000E+00  0.00000000E+00  0.00000000E+00
  0.00000000E+00  0.00000000E+00  0.00000000E+00
  0.00000000E+00  0.00000000E+00  0.00000000E+00
  0.00000000E+00  0.00000000E+00  0.00000000E+00
  0.00000000E+00  0.00000000E+00  0.00000000E+00
  0.00000000E+00  0.00000000E+00  0.00000000E+00
  0.00000000E+00  0.00000000E+00  0.00000000E+00
  0.00000000E+00  0.00000000E+00  0.00000000E+00
  0.00000000E+00  0.00000000E+00  0.00000000E+00
  0.00000000E+00  0.00000000E+00  0.00000000E+00
  0.00000000E+00  0.00000000E+00  0.00000000E+00
  0.00000000E+00  0.00000000E+00  0.00000000E+00
  0.00000000E+00  0.00000000E+00  0.00000000E+00
  0.00000000E+00  0.00000000E+00  0.00000000E+00
  0.00000000E+00  0.00000000E+00  0.00000000E+00
  0.00000000E+00  0.00000000E+00  0.00000000E+00
  0.00000000E+00  0.00000000E+00  0.00000000E+00
  0.00000000E+00  0.00000000E+00  0.00000000E+00
  0.00000000E+00  0.00000000E+00  0.00000000E+00
  0.00000000E+00  0.00000000E+00  0.00000000E+00
  0.00000000E+00  0.00000000E+00  0.00000000E+00
  0.00000000E+00  0.00000000E+00  0.00000000E+00
  0.00000000E+00  0.00000000E+00  0.00000000E+00
  0.00000000E+00  0.00000000E+00  0.00000000E+00
  0.00000000E+00  0.00000000E+00  0.00000000E+00
  0.00000000E+00  0.00000000E+00  0.00000000E+00
  0.00000000E+00  0.00000000E+00  0.00000000E+00
