 50_SnSe\(1\0\0)                        
   1.00000000000000     
     8.3396997452000008    0.0000000000000000    0.0000000000000000
     0.0000000000000000    9.0410995483000001    0.0000000000000000
     0.0000000000000000    0.0000000000000000   20.0000000000000000
   Sn   Se   Li
    16    16     1
Selective dynamics
Direct
  0.1250000000000000  0.0541899990000019  0.1173999980000033   F   F   F
  0.1250000000000000  0.5541899799999968  0.1173999980000033   F   F   F
  0.6250000000000000  0.0541899990000019  0.1173999980000033   F   F   F
  0.6250000000000000  0.5541899799999968  0.1173999980000033   F   F   F
  0.1219982898335061  0.2046313325855564  0.4038787935541066   T   T   T
  0.1250742694965581  0.7058867384829668  0.4066141022767980   T   T   T
  0.6279473524305388  0.2046644249660545  0.4038734820705230   T   T   T
  0.6248255753951213  0.7059182693416020  0.4066341600907251   T   T   T
  0.3750000000000000  0.3041900099999992  0.2717500030000011   F   F   F
  0.3750000000000000  0.8041899799999968  0.2717500030000011   F   F   F
  0.8750000000000000  0.3041900099999992  0.2717500030000011   F   F   F
  0.8750000000000000  0.8041899799999968  0.2717500030000011   F   F   F
  0.3749664430801545  0.4467096764311620  0.5531310310406710   T   T   T
  0.3749635090207519  0.0258957636710022  0.5545180131614984   T   T   T
  0.8750024665381275  0.5049075296977819  0.5600471654037804   T   T   T
  0.8749434053713898  0.9684666057247711  0.5607133842859895   T   T   T
  0.1250000000000000  0.0080600000000004  0.2550399900000002   F   F   F
  0.1250000000000000  0.5080599779999986  0.2550399900000002   F   F   F
  0.6250000000000000  0.0080600000000004  0.2550399900000002   F   F   F
  0.6250000000000000  0.5080599779999986  0.2550399900000002   F   F   F
  0.1311995880673393  0.2422258356383793  0.5454868734492067   T   T   T
  0.1128196813884017  0.7434294782739315  0.5478680780077667   T   T   T
  0.6187506562263323  0.2422409680084741  0.5454901560163847   T   T   T
  0.6370963636647318  0.7433732751825204  0.5478898513291171   T   T   T
  0.3750000000000000  0.2580600080000011  0.1341100040000001   F   F   F
  0.3750000000000000  0.7580599779999986  0.1341100040000001   F   F   F
  0.8750000000000000  0.2580600080000011  0.1341100040000001   F   F   F
  0.8750000000000000  0.7580599779999986  0.1341100040000001   F   F   F
  0.3749647508987195  0.4942699999175062  0.4202533809774565   T   T   T
  0.3749874190841069  0.9922813551674849  0.4210013450592740   T   T   T
  0.8749575635850704  0.4923764880019235  0.4236937605315347   T   T   T
  0.8749530301546145  0.9942696071510682  0.4239371779190506   T   T   T
  0.3749476278513768  0.7321154374923822  0.6076604222231268   T   T   T
 
  0.00000000E+00  0.00000000E+00  0.00000000E+00
  0.00000000E+00  0.00000000E+00  0.00000000E+00
  0.00000000E+00  0.00000000E+00  0.00000000E+00
  0.00000000E+00  0.00000000E+00  0.00000000E+00
  0.00000000E+00  0.00000000E+00  0.00000000E+00
  0.00000000E+00  0.00000000E+00  0.00000000E+00
  0.00000000E+00  0.00000000E+00  0.00000000E+00
  0.00000000E+00  0.00000000E+00  0.00000000E+00
  0.00000000E+00  0.00000000E+00  0.00000000E+00
  0.00000000E+00  0.00000000E+00  0.00000000E+00
  0.00000000E+00  0.00000000E+00  0.00000000E+00
  0.00000000E+00  0.00000000E+00  0.00000000E+00
  0.00000000E+00  0.00000000E+00  0.00000000E+00
  0.00000000E+00  0.00000000E+00  0.00000000E+00
  0.00000000E+00  0.00000000E+00  0.00000000E+00
  0.00000000E+00  0.00000000E+00  0.00000000E+00
  0.00000000E+00  0.00000000E+00  0.00000000E+00
  0.00000000E+00  0.00000000E+00  0.00000000E+00
  0.00000000E+00  0.00000000E+00  0.00000000E+00
  0.00000000E+00  0.00000000E+00  0.00000000E+00
  0.00000000E+00  0.00000000E+00  0.00000000E+00
  0.00000000E+00  0.00000000E+00  0.00000000E+00
  0.00000000E+00  0.00000000E+00  0.00000000E+00
  0.00000000E+00  0.00000000E+00  0.00000000E+00
  0.00000000E+00  0.00000000E+00  0.00000000E+00
  0.00000000E+00  0.00000000E+00  0.00000000E+00
  0.00000000E+00  0.00000000E+00  0.00000000E+00
  0.00000000E+00  0.00000000E+00  0.00000000E+00
  0.00000000E+00  0.00000000E+00  0.00000000E+00
  0.00000000E+00  0.00000000E+00  0.00000000E+00
  0.00000000E+00  0.00000000E+00  0.00000000E+00
  0.00000000E+00  0.00000000E+00  0.00000000E+00
  0.00000000E+00  0.00000000E+00  0.00000000E+00
