 74_WTe2                                
   1.00000000000000     
     3.4647998809999998    0.0000000000000000    0.0000000000000000
     0.0000000000000000   12.5981998443999998    0.0000000000000000
     0.0000000000000000    0.0000000000000000   25.0000000000000000
   Te   W    Li
    16     8     1
Selective dynamics
Direct
  0.4999999998556888  0.3449800014826607  0.2035523139199995   F   F   F
  0.4999999998556888  0.8449800014667872  0.2035523139199995   F   F   F
  0.0000000000000000  0.1008000001337095  0.2284981295999984   F   F   F
  0.0000000000000000  0.6007999778130610  0.2284981295999984   F   F   F
  0.4999999998556888  0.1707399934567775  0.3461385999200033   F   F   F
  0.4999999998556888  0.6707400083636657  0.3461385999200033   F   F   F
  0.0000000000000000  0.4256399870004941  0.3712316024000017   F   F   F
  0.0000000000000000  0.9256399869846135  0.3712316024000017   F   F   F
 -0.0000000000000000  0.1650493186578625  0.4899508854392327   T   T   T
 -0.0000000000000000  0.6668872748025813  0.4872799587241055   T   T   T
  0.4999999998556888  0.4093844065144591  0.5137776828515748   T   T   T
  0.4999999998556888  0.9135269248637289  0.5119524053078883   T   T   T
 -0.0000000000000000  0.3451036849632329  0.6305813499555143   T   T   T
 -0.0000000000000000  0.8396934875114398  0.6306019564940984   T   T   T
  0.4999999998556888  0.0794175718426215  0.6580655712875778   T   T   T
  0.4999999998556888  0.5889932551951688  0.6549306853886734   T   T   T
  0.0000000000000000  0.2965700030279166  0.2836098908000011   F   F   F
  0.0000000000000000  0.7965700030120431  0.2836098908000011   F   F   F
  0.4999999998556888  0.4748300015782831  0.2911513982800003   F   F   F
  0.4999999998556888  0.9748299717962539  0.2911513982800003   F   F   F
  0.4999999998556888  0.2122410041846121  0.5708513308605334   T   T   T
  0.4999999998556888  0.7168376879734046  0.5671602986874001   T   T   T
  0.0000000000000000  0.0367138870582912  0.5766261412768108   T   T   T
  0.0000000000000000  0.5385798745047419  0.5752173092775793   T   T   T
  0.5000000171727095  0.2734888282746558  0.6993517415744080   T   T   T
 
  0.00000000E+00  0.00000000E+00  0.00000000E+00
  0.00000000E+00  0.00000000E+00  0.00000000E+00
  0.00000000E+00  0.00000000E+00  0.00000000E+00
  0.00000000E+00  0.00000000E+00  0.00000000E+00
  0.00000000E+00  0.00000000E+00  0.00000000E+00
  0.00000000E+00  0.00000000E+00  0.00000000E+00
  0.00000000E+00  0.00000000E+00  0.00000000E+00
  0.00000000E+00  0.00000000E+00  0.00000000E+00
  0.00000000E+00  0.00000000E+00  0.00000000E+00
  0.00000000E+00  0.00000000E+00  0.00000000E+00
  0.00000000E+00  0.00000000E+00  0.00000000E+00
  0.00000000E+00  0.00000000E+00  0.00000000E+00
  0.00000000E+00  0.00000000E+00  0.00000000E+00
  0.00000000E+00  0.00000000E+00  0.00000000E+00
  0.00000000E+00  0.00000000E+00  0.00000000E+00
  0.00000000E+00  0.00000000E+00  0.00000000E+00
  0.00000000E+00  0.00000000E+00  0.00000000E+00
  0.00000000E+00  0.00000000E+00  0.00000000E+00
  0.00000000E+00  0.00000000E+00  0.00000000E+00
  0.00000000E+00  0.00000000E+00  0.00000000E+00
  0.00000000E+00  0.00000000E+00  0.00000000E+00
  0.00000000E+00  0.00000000E+00  0.00000000E+00
  0.00000000E+00  0.00000000E+00  0.00000000E+00
  0.00000000E+00  0.00000000E+00  0.00000000E+00
  0.00000000E+00  0.00000000E+00  0.00000000E+00
