 vasp.6.4.2 20Jul23 (build Nov 13 2023 15:27:39) complex                        
  
 executed on             LinuxIFC date 2026.07.20  09:59:11
 running   64 mpi-ranks, on    1 nodes
 distrk:  each k-point on   64 cores,    1 groups
 distr:  one band on NCORE=  16 cores,    4 groups


--------------------------------------------------------------------------------------------------------


 INCAR:
   SYSTEM = C48H56N8
   EDIFF = 0.1E-7
   EDIFFG = -0.001
   NSW = 300
   IBRION = 2
   POTIM = 0.2
   ISIF = 2
   ISMEAR = 0
   SIGMA = 0.05
   ENCUT = 600
   PREC = accurate
   LREAL = .FALSE.
   ALGO = normal
   ISPIN = 2
   NELM = 200
   LWAVE = .F.
   LCHARG = .F.
   IVDW = 11
   NPAR = 4
   LORBIT = 11
   LMAXMIX = 4
   GGA = PE
   LDAU = .TRUE.
   LDAUTYPE = 2
   LDAUL = 2 -1 -1 -1
   LDAUU = 6 0 0 0
   LDAUJ = 0 0 0 0
   MAGMOM = 8*1 16*1 8*1 1*1

 POTCAR:    PAW_PBE Ni 02Aug2007                  
 POTCAR:    PAW_PBE O 08Apr2002                   
 POTCAR:    PAW_PBE H 15Jun2001                   
 POTCAR:    PAW_PBE Li 17Jan2003                  
 POTCAR:    PAW_PBE Ni 02Aug2007                  
   VRHFIN =Ni:                                                                                      
   LEXCH  = PE                                                                                      
   EATOM  =  1077.6739 eV,   79.2068 Ry                                                             
                                                                                                    
   TITEL  = PAW_PBE Ni 02Aug2007                                                                    
   LULTRA =        F    use ultrasoft PP ?                                                          
   IUNSCR =        1    unscreen: 0-lin 1-nonlin 2-no                                               
   RPACOR =    2.000    partial core radius                                                         
   POMASS =   58.690; ZVAL   =   10.000    mass and valenz                                          
   RCORE  =    2.300    outmost cutoff radius                                                       
   RWIGS  =    2.430; RWIGS  =    1.286    wigner-seitz radius (au A)                               
   ENMAX  =  269.532; ENMIN  =  202.149 eV                                                          
   RCLOC  =    1.201    cutoff for local pot                                                        
   LCOR   =        T    correct aug charges                                                         
   LPAW   =        T    paw PP                                                                      
   EAUG   =  544.565                                                                                
   DEXC   =    0.000                                                                                
   RMAX   =    2.357    core radius for proj-oper                                                   
   RAUG   =    1.300    factor for augmentation sphere                                              
   RDEP   =    2.390    radius for radial grids                                                     
   RDEPT  =    1.838    core radius for aug-charge                                                  
                                                                                                    
   Atomic configuration                                                                             
    9 entries                                                                                       
     n  l   j            E        occ.                                                              
     1  0  0.50     -8206.4253   2.0000                                                             
     2  0  0.50      -976.1748   2.0000                                                             
     2  1  1.50      -839.0571   6.0000                                                             
     3  0  0.50      -105.9991   2.0000                                                             
     3  1  1.50       -66.4603   6.0000                                                             
     3  2  2.50        -4.6458   9.0000                                                             
     4  0  0.50        -4.4926   1.0000                                                             
     4  1  1.50        -4.0817   0.0000                                                             
     4  3  2.50        -1.3606   0.0000                                                             
   Description                                                                                      
     l       E           TYP  RCUT    TYP  RCUT                                                     
     2     -4.6457903     23  2.300                                                                 
     2     -6.0063729     23  2.300                                                                 
     0     -4.4925590     23  2.300                                                                 
     0      5.0102601     23  2.300                                                                 
     1     -2.7211652     23  2.300                                                                 
     1     16.5183231     23  2.300                                                                 
  local pseudopotential read in
  partial core-charges read in
  partial kinetic energy density read in
  atomic valenz-charges read in
  non local Contribution for L=           2  read in
    real space projection operators read in
  non local Contribution for L=           2  read in
    real space projection operators read in
  non local Contribution for L=           0  read in
    real space projection operators read in
  non local Contribution for L=           0  read in
    real space projection operators read in
  non local Contribution for L=           1  read in
    real space projection operators read in
  non local Contribution for L=           1  read in
    real space projection operators read in
    PAW grid and wavefunctions read in
 
   number of l-projection  operators is LMAX  =           6
   number of lm-projection operators is LMMAX =          18
 
 POTCAR:    PAW_PBE O 08Apr2002                   
   VRHFIN =O: s2p4                                                                                  
   LEXCH  = PE                                                                                      
   EATOM  =   432.3788 eV,   31.7789 Ry                                                             
                                                                                                    
   TITEL  = PAW_PBE O 08Apr2002                                                                     
   LULTRA =        F    use ultrasoft PP ?                                                          
   IUNSCR =        1    unscreen: 0-lin 1-nonlin 2-no                                               
   RPACOR =    1.200    partial core radius                                                         
   POMASS =   16.000; ZVAL   =    6.000    mass and valenz                                          
   RCORE  =    1.520    outmost cutoff radius                                                       
   RWIGS  =    1.550; RWIGS  =    0.820    wigner-seitz radius (au A)                               
   ENMAX  =  400.000; ENMIN  =  300.000 eV                                                          
   ICORE  =        2    local potential                                                             
   LCOR   =        T    correct aug charges                                                         
   LPAW   =        T    paw PP                                                                      
   EAUG   =  605.392                                                                                
   DEXC   =    0.000                                                                                
   RMAX   =    1.553    core radius for proj-oper                                                   
   RAUG   =    1.300    factor for augmentation sphere                                              
   RDEP   =    1.550    radius for radial grids                                                     
   RDEPT  =    1.329    core radius for aug-charge                                                  
                                                                                                    
   Atomic configuration                                                                             
    4 entries                                                                                       
     n  l   j            E        occ.                                                              
     1  0  0.50      -514.6923   2.0000                                                             
     2  0  0.50       -23.9615   2.0000                                                             
     2  1  0.50        -9.0305   4.0000                                                             
     3  2  1.50        -9.5241   0.0000                                                             
   Description                                                                                      
     l       E           TYP  RCUT    TYP  RCUT                                                     
     0    -23.9615318     23  1.200                                                                 
     0     -9.5240782     23  1.200                                                                 
     1     -9.0304911     23  1.520                                                                 
     1      8.1634956     23  1.520                                                                 
     2     -9.5240782      7  1.500                                                                 
  local pseudopotential read in
  partial core-charges read in
  partial kinetic energy density read in
  kinetic energy density of atom read in
  atomic valenz-charges read in
  non local Contribution for L=           0  read in
    real space projection operators read in
  non local Contribution for L=           0  read in
    real space projection operators read in
  non local Contribution for L=           1  read in
    real space projection operators read in
  non local Contribution for L=           1  read in
    real space projection operators read in
    PAW grid and wavefunctions read in
 
   number of l-projection  operators is LMAX  =           4
   number of lm-projection operators is LMMAX =           8
 
 POTCAR:    PAW_PBE H 15Jun2001                   
   VRHFIN =H: ultrasoft test                                                                        
   LEXCH  = PE                                                                                      
   EATOM  =    12.4884 eV,    0.9179 Ry                                                             
                                                                                                    
   TITEL  = PAW_PBE H 15Jun2001                                                                     
   LULTRA =        F    use ultrasoft PP ?                                                          
   IUNSCR =        0    unscreen: 0-lin 1-nonlin 2-no                                               
   RPACOR =    0.000    partial core radius                                                         
   POMASS =    1.000; ZVAL   =    1.000    mass and valenz                                          
   RCORE  =    1.100    outmost cutoff radius                                                       
   RWIGS  =    0.700; RWIGS  =    0.370    wigner-seitz radius (au A)                               
   ENMAX  =  250.000; ENMIN  =  200.000 eV                                                          
   RCLOC  =    0.701    cutoff for local pot                                                        
   LCOR   =        T    correct aug charges                                                         
   LPAW   =        T    paw PP                                                                      
   EAUG   =  400.000                                                                                
   RMAX   =    1.123    core radius for proj-oper                                                   
   RAUG   =    1.200    factor for augmentation sphere                                              
   RDEP   =    1.112    radius for radial grids                                                     
   RDEPT  =    0.926    core radius for aug-charge                                                  
                                                                                                    
   Atomic configuration                                                                             
    2 entries                                                                                       
     n  l   j            E        occ.                                                              
     1  0  0.50        -6.4927   1.0000                                                             
     2  1  0.50        -3.4015   0.0000                                                             
   Description                                                                                      
     l       E           TYP  RCUT    TYP  RCUT                                                     
     0     -6.4927494     23  1.100                                                                 
     0      6.8029130     23  1.100                                                                 
     1     -4.0817478     23  1.100                                                                 
  local pseudopotential read in
  atomic valenz-charges read in
  non local Contribution for L=           0  read in
    real space projection operators read in
  non local Contribution for L=           0  read in
    real space projection operators read in
  non local Contribution for L=           1  read in
    real space projection operators read in
    PAW grid and wavefunctions read in
 
   number of l-projection  operators is LMAX  =           3
   number of lm-projection operators is LMMAX =           5
 
 POTCAR:    PAW_PBE Li 17Jan2003                  
   VRHFIN =Li: s1p0                                                                                 
   LEXCH  = PE                                                                                      
   EATOM  =     5.3001 eV,    0.3895 Ry                                                             
                                                                                                    
   TITEL  = PAW_PBE Li 17Jan2003                                                                    
   LULTRA =        F    use ultrasoft PP ?                                                          
   IUNSCR =        1    unscreen: 0-lin 1-nonlin 2-no                                               
   RPACOR =    1.500    partial core radius                                                         
   POMASS =    7.010; ZVAL   =    1.000    mass and valenz                                          
   RCORE  =    2.050    outmost cutoff radius                                                       
   RWIGS  =    2.600; RWIGS  =    1.376    wigner-seitz radius (au A)                               
   ENMAX  =  140.000; ENMIN  =  100.000 eV                                                          
   ICORE  =        2    local potential                                                             
   LCOR   =        T    correct aug charges                                                         
   LPAW   =        T    paw PP                                                                      
   EAUG   =  331.638                                                                                
   DEXC   =    0.000                                                                                
   RMAX   =    2.098    core radius for proj-oper                                                   
   RAUG   =    1.300    factor for augmentation sphere                                              
   RDEP   =    2.094    radius for radial grids                                                     
   RDEPT  =    1.810    core radius for aug-charge                                                  
                                                                                                    
   Atomic configuration                                                                             
    4 entries                                                                                       
     n  l   j            E        occ.                                                              
     1  0  0.50       -51.8549   2.0000                                                             
     2  0  0.50        -2.8742   1.0000                                                             
     2  1  0.50        -1.3606   0.0000                                                             
     3  2  1.50        -1.3606   0.0000                                                             
   Description                                                                                      
     l       E           TYP  RCUT    TYP  RCUT                                                     
     0     -2.8742052     23  2.050                                                                 
     0     27.2116520     23  2.050                                                                 
     1     -1.3605826     23  2.050                                                                 
     2     -1.3605826     23  2.050                                                                 
  local pseudopotential read in
  partial core-charges read in
  partial kinetic energy density read in
  atomic valenz-charges read in
  non local Contribution for L=           0  read in
    real space projection operators read in
  non local Contribution for L=           0  read in
    real space projection operators read in
  non local Contribution for L=           1  read in
    real space projection operators read in
    PAW grid and wavefunctions read in
 
   number of l-projection  operators is LMAX  =           3
   number of lm-projection operators is LMMAX =           5
 
 -----------------------------------------------------------------------------
|                                                                             |
|               ----> ADVICE to this user running VASP <----                  |
|                                                                             |
|     You have a (more or less) 'large supercell' and for larger cells it     |
|     might be more efficient to use real-space projection operators.         |
|     Therefore, try LREAL= Auto in the INCAR file.                           |
|     Mind: For very accurate calculation, you might also keep the            |
|     reciprocal projection scheme (i.e. LREAL=.FALSE.).                      |
|                                                                             |
 -----------------------------------------------------------------------------

  PAW_PBE Ni 02Aug2007                  :
 energy of atom  1       EATOM=-1077.6739
 kinetic energy error for atom=    0.0019 (will be added to EATOM!!)
  PAW_PBE O 08Apr2002                   :
 energy of atom  2       EATOM= -432.3788
 kinetic energy error for atom=    0.0168 (will be added to EATOM!!)
  PAW_PBE H 15Jun2001                   :
 energy of atom  3       EATOM=  -12.4884
 kinetic energy error for atom=    0.0004 (will be added to EATOM!!)
  PAW_PBE Li 17Jan2003                  :
 energy of atom  4       EATOM=   -5.3001
 kinetic energy error for atom=    0.0000 (will be added to EATOM!!)
 
 
 POSCAR: Co3 H3 O6
  positions in direct lattice
  velocities in cartesian coordinates
 exchange correlation table for  LEXCH =        8
   RHO(1)=    0.500       N(1)  =     2000
   RHO(2)=  100.500       N(2)  =     4000

 VTST: version 4.1, (05/19/21)

 CHAIN: initializing optimizer
 
 OPT: Using VASP Conjugate-Gradient optimizer
 CHAIN: Read ICHAIN            0
 
 POSCAR: Co3 H3 O6
  positions in direct lattice
  velocities in cartesian coordinates
 


--------------------------------------------------------------------------------------------------------


 ion  position               nearest neighbor table
   1  0.333  0.167  0.218-  16 1.96  13 1.96  15 1.96  11 1.96  10 1.96   9 1.96   4 2.93   4 2.93
                             3 2.93   2 2.93   2 2.93   3 2.93
   2  0.333  0.667  0.218-  15 1.96  14 1.96  16 1.96  12 1.96   9 1.96  10 1.96   3 2.93   3 2.93
                             4 2.93   1 2.93   1 2.93   4 2.93
   3  0.833  0.167  0.218-  14 1.96  13 1.96   9 1.96  15 1.96  12 1.96  11 1.96   2 2.93   2 2.93
                             1 2.93   4 2.93   4 2.93   1 2.93
   4  0.833  0.667  0.218-  13 1.96  10 1.96  16 1.96  14 1.96  11 1.96  12 1.96   1 2.93   1 2.93
                             2 2.93   3 2.93   3 2.93   2 2.93
   5  0.164  0.332  0.443-  18 1.88  17 1.88  22 1.91  21 1.91  23 1.92  20 1.93  33 2.64   8 2.91
                             7 2.91   6 2.94   6 2.94   8 2.95   7 2.95
   6  0.167  0.833  0.446-  24 2.04  22 2.04  21 2.04  19 2.04  18 2.04  17 2.04   7 2.94   8 2.94
                             7 2.94   5 2.94   5 2.94   8 2.94
   7  0.668  0.332  0.443-  18 1.88  19 1.88  24 1.91  21 1.91  23 1.92  20 1.93  33 2.64   5 2.91
                             8 2.91   6 2.94   6 2.94   8 2.95   5 2.95
   8  0.668  0.836  0.443-  17 1.88  19 1.88  22 1.91  24 1.91  23 1.92  20 1.93  33 2.64   5 2.91
                             7 2.91   6 2.94   6 2.94   5 2.95   7 2.95
   9  0.167  0.333  0.169-  25 1.20   3 1.96   2 1.96   1 1.96
  10  0.167  0.833  0.169-  26 1.20   4 1.96   2 1.96   1 1.96
  11  0.667  0.333  0.169-  27 1.20   1 1.96   4 1.96   3 1.96
  12  0.667  0.833  0.169-  28 1.20   2 1.96   4 1.96   3 1.96
  13  0.000  0.000  0.268-  29 1.02   4 1.96   3 1.96   1 1.96
  14  0.000  0.500  0.268-  30 1.02   3 1.96   2 1.96   4 1.96
  15  0.500  0.000  0.268-  31 1.02   2 1.96   1 1.96   3 1.96
  16  0.500  0.500  0.268-  32 1.00   1 1.96   4 1.96   2 1.96
  17  0.990  0.010  0.397-   8 1.88   5 1.88   6 2.04
  18  0.990  0.481  0.397-   7 1.88   5 1.88   6 2.04
  19  0.519  0.010  0.397-   7 1.88   8 1.88   6 2.04
  20  0.500  0.500  0.397-   5 1.93   8 1.93   7 1.93
  21  0.346  0.192  0.492-  33 1.88   7 1.91   5 1.91   6 2.04
  22  0.346  0.654  0.492-  33 1.88   8 1.91   5 1.91   6 2.04
  23  0.833  0.167  0.489-   5 1.92   8 1.92   7 1.92
  24  0.808  0.654  0.492-  33 1.88   7 1.91   8 1.91   6 2.04
  25  0.167  0.333  0.109-   9 1.20
  26  0.167  0.833  0.109-  10 1.20
  27  0.667  0.333  0.109-  11 1.20
  28  0.667  0.833  0.109-  12 1.20
  29  0.995  0.005  0.318-  13 1.02
  30  0.995  0.489  0.318-  14 1.02
  31  0.511  0.005  0.318-  15 1.02
  32  0.500  0.500  0.318-  16 1.00
  33  0.500  0.500  0.544-  21 1.88  24 1.88  22 1.88   8 2.64   5 2.64   7 2.64
 
  LATTYP: Found a hexagonal cell.
 ALAT       =     5.8688778877
 C/A-ratio  =     3.4078064636
  
  Lattice vectors:
  
 A1 = (   5.8688778877,   0.0000000000,   0.0000000000)
 A2 = (  -2.9344396207,   5.0825969517,   0.0000000000)
 A3 = (   0.0000000000,   0.0000000000,  20.0000000000)


Analysis of symmetry for initial positions (statically):
=====================================================================
 Subroutine PRICEL returns:
 Original cell was already a primitive cell.
 

 Routine SETGRP: Setting up the symmetry group for a 
 hexagonal supercell.


 Subroutine GETGRP returns: Found  6 space group operations
 (whereof  2 operations were pure point group operations)
 out of a pool of 24 trial point group operations.


The static configuration has the point symmetry C_1h.
 The point group associated with its full space group is C_3v.


Analysis of symmetry for dynamics (positions and initial velocities):
=====================================================================
 Subroutine PRICEL returns:
 Original cell was already a primitive cell.
 

 Routine SETGRP: Setting up the symmetry group for a 
 hexagonal supercell.


 Subroutine GETGRP returns: Found  6 space group operations
 (whereof  2 operations were pure point group operations)
 out of a pool of 24 trial point group operations.


The dynamic configuration has the point symmetry C_1h.
 The point group associated with its full space group is C_3v.


Analysis of constrained symmetry for selective dynamics:
=====================================================================
 Subroutine PRICEL returns:
 Original cell was already a primitive cell.
 

 Routine SETGRP: Setting up the symmetry group for a 
 hexagonal supercell.


 Subroutine GETGRP returns: Found  6 space group operations
 (whereof  2 operations were pure point group operations)
 out of a pool of 24 trial point group operations.


The constrained configuration has the point symmetry C_1h.
 The point group associated with its full space group is C_3v.


Analysis of structural, dynamic, and magnetic symmetry:
=====================================================================
 Subroutine PRICEL returns:
 Original cell was already a primitive cell.
 

 Routine SETGRP: Setting up the symmetry group for a 
 hexagonal supercell.


 Subroutine GETGRP returns: Found  6 space group operations
 (whereof  2 operations were pure point group operations)
 out of a pool of 24 trial point group operations.


The overall configuration has the point symmetry C_1h.
 The point group associated with its full space group is C_3v.


 Subroutine INISYM returns: Found  6 space group operations
 (whereof  2 operations are pure point group operations),
 and found     1 'primitive' translations


----------------------------------------------------------------------------------------

                                     Primitive cell                                     

  volume of cell :     596.5828

  direct lattice vectors                    reciprocal lattice vectors
     5.868877888  0.000000000  0.000000000     0.170390323  0.098374929  0.000000000
    -2.934439621  5.082596952  0.000000000     0.000000000  0.196749813  0.000000000
     0.000000000  0.000000000 20.000000000     0.000000000  0.000000000  0.050000000

  length of vectors
     5.868877888  5.868877888 20.000000000     0.196749813  0.196749813  0.050000000

  position of ions in fractional coordinates (direct lattice)
     0.333333343  0.166666672  0.218378350
     0.333333343  0.666666687  0.218378350
     0.833333373  0.166666672  0.218378350
     0.833333373  0.666666687  0.218378350
     0.164457439  0.332228727  0.442899600
     0.166666657  0.833333313  0.446179731
     0.667771303  0.332228727  0.442899600
     0.667771303  0.835542546  0.442899600
     0.166666672  0.333333343  0.169121116
     0.166666657  0.833333313  0.169121116
     0.666666687  0.333333343  0.169121116
     0.666666687  0.833333313  0.169121116
     0.000000000  0.000000000  0.267635554
     0.000000000  0.499999970  0.267635554
     0.500000000  0.000000000  0.267635554
     0.500000000  0.499999970  0.267635554
     0.990319878  0.009680122  0.397374544
     0.990319878  0.480639726  0.397374544
     0.519360244  0.009680122  0.397374544
     0.500000000  0.499999970  0.397458855
     0.346213570  0.192427126  0.491802750
     0.346213570  0.653786460  0.491802750
     0.833333373  0.166666672  0.489049711
     0.807572919  0.653786460  0.491802750
     0.166666672  0.333333343  0.109189175
     0.166666657  0.833333313  0.109189175
     0.666666687  0.333333343  0.109189175
     0.666666687  0.833333313  0.109189175
     0.994745912  0.005254088  0.318355842
     0.994745912  0.489491793  0.318355842
     0.510508177  0.005254088  0.318355842
     0.500000000  0.499999970  0.317874135
     0.500000000  0.500000000  0.543812213

  ion indices of the primitive-cell ions
   primitive index   ion index
                 1           1
                 2           2
                 3           3
                 4           4
                 5           5
                 6           6
                 7           7
                 8           8
                 9           9
                10          10
                11          11
                12          12
                13          13
                14          14
                15          15
                16          16
                17          17
                18          18
                19          19
                20          20
                21          21
                22          22
                23          23
                24          24
                25          25
                26          26
                27          27
                28          28
                29          29
                30          30
                31          31
                32          32
                33          33

----------------------------------------------------------------------------------------

 
 
 KPOINTS: K-points                                

Automatic generation of k-mesh.
 Grid dimensions read from file:
 generate k-points for:    5    5    1

 Generating k-lattice:

  Cartesian coordinates                     Fractional coordinates (reciprocal lattice)
     0.034078065  0.019674986  0.000000000     0.200000000 -0.000000000  0.000000000
     0.000000000  0.039349963  0.000000000     0.000000000  0.200000000  0.000000000
     0.000000000  0.000000000  0.050000000     0.000000000  0.000000000  1.000000000

  Length of vectors
     0.039349963  0.039349963  0.050000000

  Shift w.r.t. Gamma in fractional coordinates (k-lattice)
     0.000000000  0.000000000  0.000000000

 
 Subroutine IBZKPT returns following result:
 ===========================================
 
 Found      5 irreducible k-points:
 
 Following reciprocal coordinates:
            Coordinates               Weight
  0.000000  0.000000  0.000000      1.000000
  0.200000  0.000000  0.000000      6.000000
  0.400000  0.000000  0.000000      6.000000
  0.200000  0.200000  0.000000      6.000000
  0.400000  0.200000  0.000000      6.000000
 
 Following cartesian coordinates:
            Coordinates               Weight
  0.000000  0.000000  0.000000      1.000000
  0.034078  0.019675  0.000000      6.000000
  0.068156  0.039350  0.000000      6.000000
  0.034078  0.059025  0.000000      6.000000
  0.068156  0.078700  0.000000      6.000000
 


--------------------------------------------------------------------------------------------------------




 Dimension of arrays:
   k-points           NKPTS =      5   k-points in BZ     NKDIM =      5   number of bands    NBANDS=    128
   number of dos      NEDOS =    301   number of ions     NIONS =     33
   non local maximal  LDIM  =      6   non local SUM 2l+1 LMDIM =     18
   total plane-waves  NPLWV = 368640
   max r-space proj   IRMAX =      1   max aug-charges    IRDMAX=  20227
   dimension x,y,z NGX =    48 NGY =   48 NGZ =  160
   dimension x,y,z NGXF=    96 NGYF=   96 NGZF=  320
   support grid    NGXF=    96 NGYF=   96 NGZF=  320
   ions per type =               8  16   8   1
   NGX,Y,Z   is equivalent  to a cutoff of  13.60, 13.60, 13.30 a.u.
   NGXF,Y,Z  is equivalent  to a cutoff of  27.19, 27.19, 26.60 a.u.

 SYSTEM =  C48H56N8                                
 POSCAR =  Co3 H3 O6                               

 Startparameter for this run:
   NWRITE =      2    write-flag & timer
   PREC   = accura    normal or accurate (medium, high low for compatibility)
   ISTART =      0    job   : 0-new  1-cont  2-samecut
   ICHARG =      2    charge: 1-file 2-atom 10-const
   ISPIN  =      2    spin polarized calculation?
   LNONCOLLINEAR =      F non collinear calculations
   LSORBIT =      F    spin-orbit coupling
   INIWAV =      1    electr: 0-lowe 1-rand  2-diag
   LASPH  =      F    aspherical Exc in radial PAW
 Electronic Relaxation 1
   ENCUT  =  600.0 eV  44.10 Ry    6.64 a.u.  11.72 11.72 39.94*2*pi/ulx,y,z
   ENINI  =  600.0     initial cutoff
   ENAUG  =  605.4 eV  augmentation charge cutoff
   NELM   =    200;   NELMIN=  2; NELMDL=  0     # of ELM steps 
   EDIFF  = 0.1E-07   stopping-criterion for ELM
   LREAL  =      F    real-space projection
   NLSPLINE    = F    spline interpolate recip. space projectors
   LCOMPAT=      F    compatible to vasp.4.4
   GGA_COMPAT  = T    GGA compatible to vasp.4.4-vasp.4.6
   LMAXPAW     = -100 max onsite density
   LMAXMIX     =    4 max onsite mixed and CHGCAR
   VOSKOWN=      0    Vosko Wilk Nusair interpolation
   ROPT   =    0.00000   0.00000   0.00000   0.00000
 Ionic relaxation
   EDIFFG = -.1E-02   stopping-criterion for IOM
   NSW    =    300    number of steps for IOM
   NBLOCK =      1;   KBLOCK =    300    inner block; outer block 
   IBRION =      2    ionic relax: 0-MD 1-quasi-New 2-CG
   NFREE  =      1    steps in history (QN), initial steepest desc. (CG)
   ISIF   =      2    stress and relaxation
   IWAVPR =     11    prediction:  0-non 1-charg 2-wave 3-comb
   ISYM   =      2    0-nonsym 1-usesym 2-fastsym
   LCORR  =      T    Harris-Foulkes like correction to forces

   POTIM  = 0.2000    time-step for ionic-motion
   TEIN   =    0.0    initial temperature
   TEBEG  =    0.0;   TEEND  =   0.0 temperature during run
   SMASS  =  -3.00    Nose mass-parameter (am)
   estimated Nose-frequenzy (Omega)   =  0.10E-29 period in steps = 0.31E+47 mass=  -0.787E-27a.u.
   SCALEE = 1.0000    scale energy and forces
   NPACO  =    256;   APACO  = 10.0  distance and # of slots for P.C.
   PSTRESS=    0.0 pullay stress

  Mass of Ions in am
   POMASS =  58.69 16.00  1.00  7.01
  Ionic Valenz
   ZVAL   =  10.00  6.00  1.00  1.00
  Atomic Wigner-Seitz radii
   RWIGS  =  -1.00 -1.00 -1.00 -1.00
  virtual crystal weights 
   VCA    =   1.00  1.00  1.00  1.00
   NELECT =     185.0000    total number of electrons
   NUPDOWN=      -1.0000    fix difference up-down

 DOS related values:
   EMIN   =  10.00;   EMAX   =-10.00  energy-range for DOS
   EFERMI =   0.00;   METHOD = LEGACY      
   ISMEAR =     0;   SIGMA  =   0.05  broadening in eV -4-tet -1-fermi 0-gaus

 Electronic relaxation 2 (details)
   IALGO  =     38    algorithm
   LDIAG  =      T    sub-space diagonalisation (order eigenvalues)
   LSUBROT=      F    optimize rotation matrix (better conditioning)
   TURBO    =      0    0=normal 1=particle mesh
   IRESTART =      0    0=no restart 2=restart with 2 vectors
   NREBOOT  =      0    no. of reboots
   NMIN     =      0    reboot dimension
   EREF     =   0.00    reference energy to select bands
   IMIX   =      4    mixing-type and parameters
     AMIX     =   0.40;   BMIX     =  1.00
     AMIX_MAG =   1.60;   BMIX_MAG =  1.00
     AMIN     =   0.10
     WC   =   100.;   INIMIX=   1;  MIXPRE=   1;  MAXMIX= -45

 Intra band minimization:
   WEIMIN = 0.0010     energy-eigenvalue tresh-hold
   EBREAK =  0.20E-10  absolut break condition
   DEPER  =   0.30     relativ break condition  

   TIME   =   0.40     timestep for ELM

  volume/ion in A,a.u.               =      18.08       122.00
  Fermi-wavevector in a.u.,A,eV,Ry     =   1.108090  2.093987 16.706106  1.227864
  Thomas-Fermi vector in A             =   2.244613
 
 Write flags
   LWAVE        =      F    write WAVECAR
   LDOWNSAMPLE  =      F    k-point downsampling of WAVECAR
   LCHARG       =      F    write CHGCAR
   LVTOT        =      F    write LOCPOT, total local potential
   LVHAR        =      F    write LOCPOT, Hartree potential only
   LELF         =      F    write electronic localiz. function (ELF)
   LORBIT       =     11    0 simple, 1 ext, 2 COOP (PROOUT), +10 PAW based schemes


 Dipole corrections
   LMONO  =      F    monopole corrections only (constant potential shift)
   LDIPOL =      F    correct potential (dipole corrections)
   IDIPOL =      0    1-x, 2-y, 3-z, 4-all directions 
   EPSILON=  1.0000000 bulk dielectric constant

 LDA+U is selected, type is set to LDAUTYPE =  2
   angular momentum for each species LDAUL =     2   -1   -1   -1
   U (eV)           for each species LDAUU =   6.0  0.0  0.0  0.0
   J (eV)           for each species LDAUJ =   0.0  0.0  0.0  0.0
 Exchange correlation treatment:
   GGA     =    PE    GGA type
   LEXCH   =     8    internal setting for exchange type
   LIBXC   =     F    Libxc                    
   VOSKOWN =     0    Vosko Wilk Nusair interpolation
   LHFCALC =     F    Hartree Fock is set to
   LHFONE  =     F    Hartree Fock one center treatment
   AEXX    =    0.0000 exact exchange contribution

 Linear response parameters
   LEPSILON=     F    determine dielectric tensor
   LRPA    =     F    only Hartree local field effects (RPA)
   LNABLA  =     F    use nabla operator in PAW spheres
   LVEL    =     F    velocity operator in full k-point grid
   CSHIFT  =0.1000    complex shift for real part using Kramers Kronig
   OMEGAMAX=  -1.0    maximum frequency
   DEG_THRESHOLD= 0.2000000E-02 threshold for treating states as degnerate
   RTIME   =   -0.100 relaxation time in fs
  (WPLASMAI=    0.000 imaginary part of plasma frequency in eV, 0.658/RTIME)
   DFIELD  = 0.0000000 0.0000000 0.0000000 field for delta impulse in time
 
  Optional k-point grid parameters
   LKPOINTS_OPT  =     F    use optional k-point grid
   KPOINTS_OPT_MODE=     1    mode for optional k-point grid
 
 Orbital magnetization related:
   ORBITALMAG=     F  switch on orbital magnetization
   LCHIMAG   =     F  perturbation theory with respect to B field
   DQ        =  0.001000  dq finite difference perturbation B field
   LLRAUG    =     F  two centre corrections for induced B field
   LBONE     =     F  B-component reconstruction in AE one-centre
   LVGVCALC  =     T  calculate vGv susceptibility
   LVGVAPPL  =     F  apply vGv susceptibility instead of pGv for G=0

 Random number generation:
   RANDOM_GENERATOR = DEFAULT
   PCG_SEED         = not used


--------------------------------------------------------------------------------------------------------


 conjugate gradient relaxation of ions
   using selective dynamics as specified on POSCAR
 charge density and potential will be updated during run
 spin polarized calculation
 Variant of blocked Davidson
 Davidson routine will perform the subspace rotation
 perform sub-space diagonalisation
    after iterative eigenvector-optimisation
 modified Broyden-mixing scheme, WC =      100.0
 initial mixing is a Kerker type mixing with AMIX =  0.4000 and BMIX =      1.0000
 Hartree-type preconditioning will be used
 using additional bands           35
 reciprocal scheme for non local part
 use partial core corrections
 calculate Harris-corrections to forces 
   (improved forces if not selfconsistent)
 use gradient corrections 
 use of overlap-Matrix (Vanderbilt PP)
 Gauss-broadening in eV      SIGMA  =   0.05


--------------------------------------------------------------------------------------------------------


  energy-cutoff  :      600.00
  volume of cell :      596.58
      direct lattice vectors                 reciprocal lattice vectors
     5.868877888  0.000000000  0.000000000     0.170390323  0.098374929  0.000000000
    -2.934439621  5.082596952  0.000000000     0.000000000  0.196749813  0.000000000
     0.000000000  0.000000000 20.000000000     0.000000000  0.000000000  0.050000000

  length of vectors
     5.868877888  5.868877888 20.000000000     0.196749813  0.196749813  0.050000000


 
 k-points in units of 2pi/SCALE and weight: K-points                                
   0.00000000  0.00000000  0.00000000       0.040
   0.03407806  0.01967499  0.00000000       0.240
   0.06815613  0.03934997  0.00000000       0.240
   0.03407806  0.05902495  0.00000000       0.240
   0.06815613  0.07869993  0.00000000       0.240
 
 k-points in reciprocal lattice and weights: K-points                                
   0.00000000  0.00000000  0.00000000       0.040
   0.20000000  0.00000000  0.00000000       0.240
   0.40000000  0.00000000  0.00000000       0.240
   0.20000000  0.20000000  0.00000000       0.240
   0.40000000  0.20000000  0.00000000       0.240
 
 position of ions in fractional coordinates (direct lattice) 
   0.33333334  0.16666667  0.21837835
   0.33333334  0.66666669  0.21837835
   0.83333337  0.16666667  0.21837835
   0.83333337  0.66666669  0.21837835
   0.16445744  0.33222873  0.44289960
   0.16666666  0.83333331  0.44617973
   0.66777130  0.33222873  0.44289960
   0.66777130  0.83554255  0.44289960
   0.16666667  0.33333334  0.16912112
   0.16666666  0.83333331  0.16912112
   0.66666669  0.33333334  0.16912112
   0.66666669  0.83333331  0.16912112
   0.00000000  0.00000000  0.26763555
   0.00000000  0.49999997  0.26763555
   0.50000000  0.00000000  0.26763555
   0.50000000  0.49999997  0.26763555
   0.99031988  0.00968012  0.39737454
   0.99031988  0.48063973  0.39737454
   0.51936024  0.00968012  0.39737454
   0.50000000  0.49999997  0.39745885
   0.34621357  0.19242713  0.49180275
   0.34621357  0.65378646  0.49180275
   0.83333337  0.16666667  0.48904971
   0.80757292  0.65378646  0.49180275
   0.16666667  0.33333334  0.10918917
   0.16666666  0.83333331  0.10918917
   0.66666669  0.33333334  0.10918917
   0.66666669  0.83333331  0.10918917
   0.99474591  0.00525409  0.31835584
   0.99474591  0.48949179  0.31835584
   0.51050818  0.00525409  0.31835584
   0.50000000  0.49999997  0.31787414
   0.50000000  0.50000000  0.54381221
 
 position of ions in cartesian coordinates  (Angst):
   1.46721940  0.84709952  4.36756700
  -0.00000045  3.38839807  4.36756700
   4.40165852  0.84709952  4.36756700
   2.93443867  3.38839807  4.36756700
  -0.00972451  1.68858471  8.85799199
  -1.46722003  4.23549736  8.92359462
   2.94416310  1.68858471  8.85799199
   1.46721909  4.24672600  8.85799199
  -0.00000022  1.69419903  3.38242232
  -1.46722003  4.23549736  3.38242232
   2.93443881  1.69419903  3.38242232
   1.46721909  4.23549736  3.38242232
   0.00000000  0.00000000  5.35271108
  -1.46721972  2.54129832  5.35271108
   2.93443894  0.00000000  5.35271108
   1.46721922  2.54129832  5.35271108
   5.78366070  0.04920016  7.94749089
   4.40165818  2.44289801  7.94749089
   3.01965612  0.04920016  7.94749089
   1.46721922  2.54129832  7.94917709
   1.46721938  0.97802952  9.83605500
   0.11338827  3.32293307  9.83605500
   4.40165852  0.84709952  9.78099423
   2.82104996  3.32293307  9.83605500
  -0.00000022  1.69419903  2.18378350
  -1.46722003  4.23549736  2.18378350
   2.93443881  1.69419903  2.18378350
   1.46721909  4.23549736  2.18378350
   5.82262448  0.02670441  6.36711684
   4.40165817  2.48788950  6.36711684
   2.98069235  0.02670441  6.36711684
   1.46721922  2.54129832  6.35748270
   1.46721913  2.54129848 10.87624426
 


--------------------------------------------------------------------------------------------------------


 k-point   1 :   0.0000 0.0000 0.0000  plane waves:   19885
 k-point   2 :   0.2000 0.0000 0.0000  plane waves:   19920
 k-point   3 :   0.4000 0.0000 0.0000  plane waves:   19912
 k-point   4 :   0.2000 0.2000 0.0000  plane waves:   19900
 k-point   5 :   0.4000 0.2000 0.0000  plane waves:   19896

 maximum and minimum number of plane-waves per node :      1273     1223

 maximum number of plane-waves:     19920
 maximum index in each direction: 
   IXMAX=   11   IYMAX=   11   IZMAX=   39
   IXMIN=  -12   IYMIN=  -11   IZMIN=  -39


 parallel 3D FFT for wavefunctions:
    minimum data exchange during FFTs selected (reduces bandwidth)
 parallel 3D FFT for charge:
    minimum data exchange during FFTs selected (reduces bandwidth)


 total amount of memory used by VASP MPI-rank0    51538. kBytes
=======================================================================

   base      :      30000. kBytes
   nonl-proj :       4348. kBytes
   fftplans  :       2625. kBytes
   grid      :       7776. kBytes
   one-center:         93. kBytes
   wavefun   :       6696. kBytes
 
     INWAV:  cpu time      0.0000: real time      0.0000
 Broyden mixing: mesh for mixing (old mesh)
   NGX = 23   NGY = 23   NGZ = 79
  (NGX  = 96   NGY  = 96   NGZ  =320)
  gives a total of  41791 points

 initial charge density was supplied:
 charge density of overlapping atoms calculated
 number of electron     185.0000000 magnetization      33.0000000
 keeping initial charge density in first step


--------------------------------------------------------------------------------------------------------


 Maximum index for augmentation-charges          787 (set IRDMAX)


--------------------------------------------------------------------------------------------------------


 First call to EWALD:  gamma=   0.211
 Maximum number of real-space cells 4x 4x 1
 Maximum number of reciprocal cells 2x 2x 6

    FEWALD:  cpu time      0.0019: real time      0.0048


--------------------------------------- Ionic step        1  -------------------------------------------




--------------------------------------- Iteration      1(   1)  ---------------------------------------


    POTLOK:  cpu time      0.0786: real time      0.1312
    SETDIJ:  cpu time      0.0094: real time      0.0190
     EDDAV:  cpu time      2.0459: real time      2.1114
       DOS:  cpu time      0.0021: real time      0.0074
    --------------------------------------------
      LOOP:  cpu time      2.1361: real time      2.2691

 eigenvalue-minimisations  :  2560
 total energy-change (2. order) : 0.2146912E+04  (-0.8838736E+04)
 number of electron     185.0000000 magnetization      33.0000000
 augmentation part      185.0000000 magnetization      33.0000000

 Free energy of the ion-electron system (eV)
  ---------------------------------------------------
  alpha Z        PSCENC =       248.28095292
  Ewald energy   TEWEN  =     47164.57967162
  -Hartree energ DENC   =    -61906.34546387
  -exchange      EXHF   =         0.00000000
  -V(xc)+E(xc)   XCENC  =       715.57017686
  PAW double counting   =     13267.04619474   -13651.15125200
  entropy T*S    EENTRO =        -0.00731166
  eigenvalues    EBANDS =       664.56686010
  atomic energy  EATOM  =     15644.37171969
  Solvation  Ediel_sol  =         0.00000000
  ---------------------------------------------------
  free energy    TOTEN  =      2146.91154840 eV

  energy without entropy =     2146.91886006  energy(sigma->0) =     2146.91520423


--------------------------------------------------------------------------------------------------------




--------------------------------------- Iteration      1(   2)  ---------------------------------------


     EDDAV:  cpu time      2.2754: real time      2.3015
       DOS:  cpu time      0.0026: real time      0.0027
    --------------------------------------------
      LOOP:  cpu time      2.2780: real time      2.3042

 eigenvalue-minimisations  :  2832
 total energy-change (2. order) :-0.1869656E+04  (-0.1656157E+04)
 number of electron     185.0000000 magnetization      33.0000000
 augmentation part      185.0000000 magnetization      33.0000000

 Free energy of the ion-electron system (eV)
  ---------------------------------------------------
  alpha Z        PSCENC =       248.28095292
  Ewald energy   TEWEN  =     47164.57967162
  -Hartree energ DENC   =    -61906.34546387
  -exchange      EXHF   =         0.00000000
  -V(xc)+E(xc)   XCENC  =       715.57017686
  PAW double counting   =     13267.04619474   -13651.15125200
  entropy T*S    EENTRO =        -0.01835155
  eigenvalues    EBANDS =     -1205.07771947
  atomic energy  EATOM  =     15644.37171969
  Solvation  Ediel_sol  =         0.00000000
  ---------------------------------------------------
  free energy    TOTEN  =       277.25592893 eV

  energy without entropy =      277.27428048  energy(sigma->0) =      277.26510471


--------------------------------------------------------------------------------------------------------




--------------------------------------- Iteration      1(   3)  ---------------------------------------


     EDDAV:  cpu time      2.2387: real time      2.2511
       DOS:  cpu time      0.0015: real time      0.0015
    --------------------------------------------
      LOOP:  cpu time      2.2402: real time      2.2526

 eigenvalue-minimisations  :  2784
 total energy-change (2. order) :-0.4140055E+03  (-0.3948179E+03)
 number of electron     185.0000000 magnetization      33.0000000
 augmentation part      185.0000000 magnetization      33.0000000

 Free energy of the ion-electron system (eV)
  ---------------------------------------------------
  alpha Z        PSCENC =       248.28095292
  Ewald energy   TEWEN  =     47164.57967162
  -Hartree energ DENC   =    -61906.34546387
  -exchange      EXHF   =         0.00000000
  -V(xc)+E(xc)   XCENC  =       715.57017686
  PAW double counting   =     13267.04619474   -13651.15125200
  entropy T*S    EENTRO =        -0.06733949
  eigenvalues    EBANDS =     -1619.03424846
  atomic energy  EATOM  =     15644.37171969
  Solvation  Ediel_sol  =         0.00000000
  ---------------------------------------------------
  free energy    TOTEN  =      -136.74958799 eV

  energy without entropy =     -136.68224850  energy(sigma->0) =     -136.71591824


--------------------------------------------------------------------------------------------------------




--------------------------------------- Iteration      1(   4)  ---------------------------------------


     EDDAV:  cpu time      2.2846: real time      2.3020
       DOS:  cpu time      0.0016: real time      0.0016
    --------------------------------------------
      LOOP:  cpu time      2.2862: real time      2.3036

 eigenvalue-minimisations  :  2880
 total energy-change (2. order) :-0.2664852E+02  (-0.2624426E+02)
 number of electron     185.0000000 magnetization      33.0000000
 augmentation part      185.0000000 magnetization      33.0000000

 Free energy of the ion-electron system (eV)
  ---------------------------------------------------
  alpha Z        PSCENC =       248.28095292
  Ewald energy   TEWEN  =     47164.57967162
  -Hartree energ DENC   =    -61906.34546387
  -exchange      EXHF   =         0.00000000
  -V(xc)+E(xc)   XCENC  =       715.57017686
  PAW double counting   =     13267.04619474   -13651.15125200
  entropy T*S    EENTRO =        -0.08155146
  eigenvalues    EBANDS =     -1645.66855447
  atomic energy  EATOM  =     15644.37171969
  Solvation  Ediel_sol  =         0.00000000
  ---------------------------------------------------
  free energy    TOTEN  =      -163.39810597 eV

  energy without entropy =     -163.31655451  energy(sigma->0) =     -163.35733024


--------------------------------------------------------------------------------------------------------




--------------------------------------- Iteration      1(   5)  ---------------------------------------


     EDDAV:  cpu time      2.2200: real time      2.2326
       DOS:  cpu time      0.0015: real time      0.0015
    CHARGE:  cpu time      0.1704: real time      0.1924
    MIXING:  cpu time      0.0087: real time      0.0266
    --------------------------------------------
      LOOP:  cpu time      2.4006: real time      2.4531

 eigenvalue-minimisations  :  2888
 total energy-change (2. order) :-0.5793706E+00  (-0.5777717E+00)
 number of electron     184.9999964 magnetization      31.2570764
 augmentation part       56.1256880 magnetization      25.4045159

 Broyden mixing:
  rms(total) = 0.82640E+01    rms(broyden)= 0.82636E+01
  rms(prec ) = 0.85765E+01
  weight for this iteration     100.00

 Free energy of the ion-electron system (eV)
  ---------------------------------------------------
  alpha Z        PSCENC =       248.28095292
  Ewald energy   TEWEN  =     47164.57967162
  -Hartree energ DENC   =    -61906.34546387
  -exchange      EXHF   =         0.00000000
  -V(xc)+E(xc)   XCENC  =       715.57017686
  PAW double counting   =     13267.04619474   -13651.15125200
  entropy T*S    EENTRO =        -0.08139538
  eigenvalues    EBANDS =     -1646.24808118
  atomic energy  EATOM  =     15644.37171969
  Solvation  Ediel_sol  =         0.00000000
  ---------------------------------------------------
  free energy    TOTEN  =      -163.97747660 eV

  energy without entropy =     -163.89608122  energy(sigma->0) =     -163.93677891


--------------------------------------------------------------------------------------------------------




--------------------------------------- Iteration      1(   6)  ---------------------------------------


    POTLOK:  cpu time      0.0675: real time      0.0684
    SETDIJ:  cpu time      0.0063: real time      0.0064
     EDDAV:  cpu time      3.0969: real time      3.1190
       DOS:  cpu time      0.0014: real time      0.0014
    CHARGE:  cpu time      0.1564: real time      0.1577
    MIXING:  cpu time      0.0034: real time      0.0083
    --------------------------------------------
      LOOP:  cpu time      3.3320: real time      3.3613

 eigenvalue-minimisations  :  3784
 total energy-change (2. order) : 0.6806139E+01  (-0.3358280E+02)
 number of electron     184.9999970 magnetization      30.0480550
 augmentation part       65.9220015 magnetization      28.7357187

 Broyden mixing:
  rms(total) = 0.11957E+02    rms(broyden)= 0.11956E+02
  rms(prec ) = 0.12894E+02
  weight for this iteration     100.00

 eigenvalues of (default mixing * dielectric matrix)
  average eigenvalue GAMMA=   0.3764
  0.3764

 Free energy of the ion-electron system (eV)
  ---------------------------------------------------
  alpha Z        PSCENC =       248.28095292
  Ewald energy   TEWEN  =     47164.57967162
  -Hartree energ DENC   =    -61941.27899128
  -exchange      EXHF   =         0.00000000
  -V(xc)+E(xc)   XCENC  =       743.59429558
  PAW double counting   =     14845.67150122   -15154.28640799
  entropy T*S    EENTRO =        -0.02330600
  eigenvalues    EBANDS =     -1708.08077384
  atomic energy  EATOM  =     15644.37171969
  Solvation  Ediel_sol  =         0.00000000
  ---------------------------------------------------
  free energy    TOTEN  =      -157.17133808 eV

  energy without entropy =     -157.14803208  energy(sigma->0) =     -157.15968508


--------------------------------------------------------------------------------------------------------




--------------------------------------- Iteration      1(   7)  ---------------------------------------


    POTLOK:  cpu time      0.0659: real time      0.0662
    SETDIJ:  cpu time      0.0060: real time      0.0061
     EDDAV:  cpu time      2.5906: real time      2.6046
       DOS:  cpu time      0.0016: real time      0.0016
    CHARGE:  cpu time      0.1588: real time      0.1594
    MIXING:  cpu time      0.0015: real time      0.0015
    --------------------------------------------
      LOOP:  cpu time      2.8243: real time      2.8393

 eigenvalue-minimisations  :  3368
 total energy-change (2. order) : 0.3020670E+02  (-0.1311575E+02)
 number of electron     184.9999973 magnetization      28.6660254
 augmentation part       60.5311676 magnetization      23.5069736

 Broyden mixing:
  rms(total) = 0.56597E+01    rms(broyden)= 0.56592E+01
  rms(prec ) = 0.62093E+01
  weight for this iteration     100.00

 eigenvalues of (default mixing * dielectric matrix)
  average eigenvalue GAMMA=   0.4316
  0.5723  0.2910

 Free energy of the ion-electron system (eV)
  ---------------------------------------------------
  alpha Z        PSCENC =       248.28095292
  Ewald energy   TEWEN  =     47164.57967162
  -Hartree energ DENC   =    -62065.72769564
  -exchange      EXHF   =         0.00000000
  -V(xc)+E(xc)   XCENC  =       742.14947611
  PAW double counting   =     15384.76881885   -15749.87911018
  entropy T*S    EENTRO =        -0.03355050
  eigenvalues    EBANDS =     -1495.47492085
  atomic energy  EATOM  =     15644.37171969
  Solvation  Ediel_sol  =         0.00000000
  ---------------------------------------------------
  free energy    TOTEN  =      -126.96463798 eV

  energy without entropy =     -126.93108748  energy(sigma->0) =     -126.94786273


--------------------------------------------------------------------------------------------------------




--------------------------------------- Iteration      1(   8)  ---------------------------------------


    POTLOK:  cpu time      0.0716: real time      0.0719
    SETDIJ:  cpu time      0.0061: real time      0.0061
     EDDAV:  cpu time      2.5376: real time      2.5491
       DOS:  cpu time      0.0014: real time      0.0014
    CHARGE:  cpu time      0.1519: real time      0.1524
    MIXING:  cpu time      0.0014: real time      0.0014
    --------------------------------------------
      LOOP:  cpu time      2.7700: real time      2.7823

 eigenvalue-minimisations  :  3720
 total energy-change (2. order) :-0.1065141E+02  (-0.9917294E+01)
 number of electron     184.9999969 magnetization      26.8900277
 augmentation part       59.6684934 magnetization      23.1977220

 Broyden mixing:
  rms(total) = 0.74016E+01    rms(broyden)= 0.74013E+01
  rms(prec ) = 0.87586E+01
  weight for this iteration     100.00

 eigenvalues of (default mixing * dielectric matrix)
  average eigenvalue GAMMA=   0.5123
  0.6730  0.6730  0.1909

 Free energy of the ion-electron system (eV)
  ---------------------------------------------------
  alpha Z        PSCENC =       248.28095292
  Ewald energy   TEWEN  =     47164.57967162
  -Hartree energ DENC   =    -62120.17087409
  -exchange      EXHF   =         0.00000000
  -V(xc)+E(xc)   XCENC  =       738.18328060
  PAW double counting   =     16077.70545947   -16470.67704464
  entropy T*S    EENTRO =        -0.01850486
  eigenvalues    EBANDS =     -1419.87070910
  atomic energy  EATOM  =     15644.37171969
  Solvation  Ediel_sol  =         0.00000000
  ---------------------------------------------------
  free energy    TOTEN  =      -137.61604839 eV

  energy without entropy =     -137.59754353  energy(sigma->0) =     -137.60679596


--------------------------------------------------------------------------------------------------------




--------------------------------------- Iteration      1(   9)  ---------------------------------------


    POTLOK:  cpu time      0.0635: real time      0.0637
    SETDIJ:  cpu time      0.0058: real time      0.0060
     EDDAV:  cpu time      2.4581: real time      2.4721
       DOS:  cpu time      0.0014: real time      0.0014
    CHARGE:  cpu time      0.1637: real time      0.1644
    MIXING:  cpu time      0.0016: real time      0.0015
    --------------------------------------------
      LOOP:  cpu time      2.6941: real time      2.7092

 eigenvalue-minimisations  :  3376
 total energy-change (2. order) : 0.6525804E+01  (-0.1046783E+02)
 number of electron     184.9999966 magnetization      24.9576091
 augmentation part       59.1819209 magnetization      19.8213826

 Broyden mixing:
  rms(total) = 0.56886E+01    rms(broyden)= 0.56883E+01
  rms(prec ) = 0.63528E+01
  weight for this iteration     100.00

 eigenvalues of (default mixing * dielectric matrix)
  average eigenvalue GAMMA=   0.5663
  0.9869  0.7509  0.3543  0.1729

 Free energy of the ion-electron system (eV)
  ---------------------------------------------------
  alpha Z        PSCENC =       248.28095292
  Ewald energy   TEWEN  =     47164.57967162
  -Hartree energ DENC   =    -62104.34080445
  -exchange      EXHF   =         0.00000000
  -V(xc)+E(xc)   XCENC  =       739.13057015
  PAW double counting   =     16657.41583879   -17054.42663620
  entropy T*S    EENTRO =        -0.06478433
  eigenvalues    EBANDS =     -1426.03677233
  atomic energy  EATOM  =     15644.37171969
  Solvation  Ediel_sol  =         0.00000000
  ---------------------------------------------------
  free energy    TOTEN  =      -131.09024415 eV

  energy without entropy =     -131.02545981  energy(sigma->0) =     -131.05785198


--------------------------------------------------------------------------------------------------------




--------------------------------------- Iteration      1(  10)  ---------------------------------------


    POTLOK:  cpu time      0.0672: real time      0.0676
    SETDIJ:  cpu time      0.0063: real time      0.0063
     EDDAV:  cpu time      2.5227: real time      2.5415
       DOS:  cpu time      0.0013: real time      0.0013
    CHARGE:  cpu time      0.1514: real time      0.1519
    MIXING:  cpu time      0.0014: real time      0.0014
    --------------------------------------------
      LOOP:  cpu time      2.7502: real time      2.7700

 eigenvalue-minimisations  :  3328
 total energy-change (2. order) : 0.1123810E+02  (-0.4482387E+01)
 number of electron     184.9999968 magnetization      24.1831742
 augmentation part       59.4152784 magnetization      17.9711669

 Broyden mixing:
  rms(total) = 0.54328E+01    rms(broyden)= 0.54327E+01
  rms(prec ) = 0.61852E+01
  weight for this iteration     100.00

 eigenvalues of (default mixing * dielectric matrix)
  average eigenvalue GAMMA=   0.5535
  1.3631  0.6035  0.3126  0.3126  0.1758

 Free energy of the ion-electron system (eV)
  ---------------------------------------------------
  alpha Z        PSCENC =       248.28095292
  Ewald energy   TEWEN  =     47164.57967162
  -Hartree energ DENC   =    -62137.11758925
  -exchange      EXHF   =         0.00000000
  -V(xc)+E(xc)   XCENC  =       740.59213996
  PAW double counting   =     17235.14034333   -17639.95409550
  entropy T*S    EENTRO =        -0.01634121
  eigenvalues    EBANDS =     -1375.72894567
  atomic energy  EATOM  =     15644.37171969
  Solvation  Ediel_sol  =         0.00000000
  ---------------------------------------------------
  free energy    TOTEN  =      -119.85214410 eV

  energy without entropy =     -119.83580289  energy(sigma->0) =     -119.84397350


--------------------------------------------------------------------------------------------------------




--------------------------------------- Iteration      1(  11)  ---------------------------------------


    POTLOK:  cpu time      0.0631: real time      0.0635
    SETDIJ:  cpu time      0.0058: real time      0.0059
     EDDAV:  cpu time      2.2774: real time      2.2890
       DOS:  cpu time      0.0015: real time      0.0015
    CHARGE:  cpu time      0.1910: real time      0.1918
    MIXING:  cpu time      0.0027: real time      0.0027
    --------------------------------------------
      LOOP:  cpu time      2.5416: real time      2.5544

 eigenvalue-minimisations  :  3224
 total energy-change (2. order) : 0.4405763E+00  (-0.1698528E+02)
 number of electron     184.9999969 magnetization      23.6226865
 augmentation part       60.5227488 magnetization      21.7293592

 Broyden mixing:
  rms(total) = 0.36805E+01    rms(broyden)= 0.36803E+01
  rms(prec ) = 0.38294E+01
  weight for this iteration     100.00

 eigenvalues of (default mixing * dielectric matrix)
  average eigenvalue GAMMA=   0.5132
  1.1786  0.5562  0.5562  0.4852  0.1516  0.1516

 Free energy of the ion-electron system (eV)
  ---------------------------------------------------
  alpha Z        PSCENC =       248.28095292
  Ewald energy   TEWEN  =     47164.57967162
  -Hartree energ DENC   =    -62156.00628530
  -exchange      EXHF   =         0.00000000
  -V(xc)+E(xc)   XCENC  =       739.14878627
  PAW double counting   =     17451.14413230   -17859.69564141
  entropy T*S    EENTRO =        -0.02571872
  eigenvalues    EBANDS =     -1351.20918512
  atomic energy  EATOM  =     15644.37171969
  Solvation  Ediel_sol  =         0.00000000
  ---------------------------------------------------
  free energy    TOTEN  =      -119.41156775 eV

  energy without entropy =     -119.38584904  energy(sigma->0) =     -119.39870840


--------------------------------------------------------------------------------------------------------




--------------------------------------- Iteration      1(  12)  ---------------------------------------


    POTLOK:  cpu time      0.0891: real time      0.0897
    SETDIJ:  cpu time      0.0081: real time      0.0082
     EDDAV:  cpu time      2.7438: real time      2.7569
       DOS:  cpu time      0.0018: real time      0.0018
    CHARGE:  cpu time      0.1877: real time      0.1887
    MIXING:  cpu time      0.0021: real time      0.0021
    --------------------------------------------
      LOOP:  cpu time      3.0325: real time      3.0474

 eigenvalue-minimisations  :  3568
 total energy-change (2. order) : 0.5759465E+00  (-0.9429670E+00)
 number of electron     184.9999966 magnetization      23.2116517
 augmentation part       60.1923673 magnetization      20.5116666

 Broyden mixing:
  rms(total) = 0.34435E+01    rms(broyden)= 0.34433E+01
  rms(prec ) = 0.37841E+01
  weight for this iteration     100.00

 eigenvalues of (default mixing * dielectric matrix)
  average eigenvalue GAMMA=   0.4765
  1.2621  0.5595  0.5595  0.4358  0.1686  0.1749  0.1749

 Free energy of the ion-electron system (eV)
  ---------------------------------------------------
  alpha Z        PSCENC =       248.28095292
  Ewald energy   TEWEN  =     47164.57967162
  -Hartree energ DENC   =    -62182.78610972
  -exchange      EXHF   =         0.00000000
  -V(xc)+E(xc)   XCENC  =       740.91258020
  PAW double counting   =     17411.00595811   -17819.05418237
  entropy T*S    EENTRO =        -0.01803194
  eigenvalues    EBANDS =     -1326.12817980
  atomic energy  EATOM  =     15644.37171969
  Solvation  Ediel_sol  =         0.00000000
  ---------------------------------------------------
  free energy    TOTEN  =      -118.83562129 eV

  energy without entropy =     -118.81758935  energy(sigma->0) =     -118.82660532


--------------------------------------------------------------------------------------------------------




--------------------------------------- Iteration      1(  13)  ---------------------------------------


    POTLOK:  cpu time      0.0760: real time      0.0764
    SETDIJ:  cpu time      0.0070: real time      0.0070
     EDDAV:  cpu time      2.7563: real time      2.7745
       DOS:  cpu time      0.0016: real time      0.0016
    CHARGE:  cpu time      0.1798: real time      0.1804
    MIXING:  cpu time      0.0019: real time      0.0019
    --------------------------------------------
      LOOP:  cpu time      3.0227: real time      3.0418

 eigenvalue-minimisations  :  3288
 total energy-change (2. order) :-0.2930009E+01  (-0.4056647E+00)
 number of electron     184.9999967 magnetization      22.9777949
 augmentation part       59.5824348 magnetization      20.5287844

 Broyden mixing:
  rms(total) = 0.25815E+01    rms(broyden)= 0.25813E+01
  rms(prec ) = 0.26225E+01
  weight for this iteration     100.00

 eigenvalues of (default mixing * dielectric matrix)
  average eigenvalue GAMMA=   0.4921
  1.2539  0.6771  0.6771  0.4226  0.2897  0.2897  0.1635  0.1635

 Free energy of the ion-electron system (eV)
  ---------------------------------------------------
  alpha Z        PSCENC =       248.28095292
  Ewald energy   TEWEN  =     47164.57967162
  -Hartree energ DENC   =    -62206.89588853
  -exchange      EXHF   =         0.00000000
  -V(xc)+E(xc)   XCENC  =       739.33167194
  PAW double counting   =     17486.77879994   -17893.36846472
  entropy T*S    EENTRO =        -0.01181341
  eigenvalues    EBANDS =     -1304.83227946
  atomic energy  EATOM  =     15644.37171969
  Solvation  Ediel_sol  =         0.00000000
  ---------------------------------------------------
  free energy    TOTEN  =      -121.76563002 eV

  energy without entropy =     -121.75381660  energy(sigma->0) =     -121.75972331


--------------------------------------------------------------------------------------------------------




--------------------------------------- Iteration      1(  14)  ---------------------------------------


    POTLOK:  cpu time      0.0717: real time      0.0719
    SETDIJ:  cpu time      0.0065: real time      0.0065
     EDDAV:  cpu time      2.5153: real time      2.5289
       DOS:  cpu time      0.0018: real time      0.0018
    CHARGE:  cpu time      0.1752: real time      0.1759
    MIXING:  cpu time      0.0018: real time      0.0018
    --------------------------------------------
      LOOP:  cpu time      2.7721: real time      2.7867

 eigenvalue-minimisations  :  3088
 total energy-change (2. order) :-0.2447371E+01  (-0.2067217E+00)
 number of electron     184.9999966 magnetization      22.3458179
 augmentation part       59.5493098 magnetization      19.8606040

 Broyden mixing:
  rms(total) = 0.22830E+01    rms(broyden)= 0.22830E+01
  rms(prec ) = 0.23467E+01
  weight for this iteration     100.00

 eigenvalues of (default mixing * dielectric matrix)
  average eigenvalue GAMMA=   0.5437
  1.2867  0.8356  0.8356  0.4493  0.4493  0.4387  0.2597  0.1692  0.1692

 Free energy of the ion-electron system (eV)
  ---------------------------------------------------
  alpha Z        PSCENC =       248.28095292
  Ewald energy   TEWEN  =     47164.57967162
  -Hartree energ DENC   =    -62213.14249071
  -exchange      EXHF   =         0.00000000
  -V(xc)+E(xc)   XCENC  =       738.90735597
  PAW double counting   =     17469.92960081   -17874.43177264
  entropy T*S    EENTRO =        -0.01495465
  eigenvalues    EBANDS =     -1302.69308354
  atomic energy  EATOM  =     15644.37171969
  Solvation  Ediel_sol  =         0.00000000
  ---------------------------------------------------
  free energy    TOTEN  =      -124.21300052 eV

  energy without entropy =     -124.19804587  energy(sigma->0) =     -124.20552320


--------------------------------------------------------------------------------------------------------




--------------------------------------- Iteration      1(  15)  ---------------------------------------


    POTLOK:  cpu time      0.0702: real time      0.0705
    SETDIJ:  cpu time      0.0064: real time      0.0064
     EDDAV:  cpu time      2.5912: real time      2.6033
       DOS:  cpu time      0.0014: real time      0.0014
    CHARGE:  cpu time      0.1575: real time      0.1581
    MIXING:  cpu time      0.0018: real time      0.0018
    --------------------------------------------
      LOOP:  cpu time      2.8286: real time      2.8415

 eigenvalue-minimisations  :  3288
 total energy-change (2. order) :-0.3118467E+01  (-0.1709767E+00)
 number of electron     184.9999966 magnetization      21.0537907
 augmentation part       59.3618637 magnetization      18.9717251

 Broyden mixing:
  rms(total) = 0.19315E+01    rms(broyden)= 0.19315E+01
  rms(prec ) = 0.19906E+01
  weight for this iteration     100.00

 eigenvalues of (default mixing * dielectric matrix)
  average eigenvalue GAMMA=   0.6154
  1.4095  1.1434  1.1434  0.5140  0.5140  0.3699  0.3699  0.3532  0.1684  0.1684

 Free energy of the ion-electron system (eV)
  ---------------------------------------------------
  alpha Z        PSCENC =       248.28095292
  Ewald energy   TEWEN  =     47164.57967162
  -Hartree energ DENC   =    -62232.99082777
  -exchange      EXHF   =         0.00000000
  -V(xc)+E(xc)   XCENC  =       738.33709047
  PAW double counting   =     17498.36584089   -17898.97094223
  entropy T*S    EENTRO =        -0.00836074
  eigenvalues    EBANDS =     -1289.29661283
  atomic energy  EATOM  =     15644.37171969
  Solvation  Ediel_sol  =         0.00000000
  ---------------------------------------------------
  free energy    TOTEN  =      -127.33146797 eV

  energy without entropy =     -127.32310723  energy(sigma->0) =     -127.32728760


--------------------------------------------------------------------------------------------------------




--------------------------------------- Iteration      1(  16)  ---------------------------------------


    POTLOK:  cpu time      0.0655: real time      0.0657
    SETDIJ:  cpu time      0.0060: real time      0.0060
     EDDAV:  cpu time      2.4000: real time      2.4130
       DOS:  cpu time      0.0013: real time      0.0013
    CHARGE:  cpu time      0.1523: real time      0.1529
    MIXING:  cpu time      0.0025: real time      0.0025
    --------------------------------------------
      LOOP:  cpu time      2.6277: real time      2.6414

 eigenvalue-minimisations  :  3216
 total energy-change (2. order) :-0.2977790E+01  (-0.2495841E+00)
 number of electron     184.9999966 magnetization      19.1100442
 augmentation part       59.5698282 magnetization      17.1051848

 Broyden mixing:
  rms(total) = 0.15866E+01    rms(broyden)= 0.15866E+01
  rms(prec ) = 0.16468E+01
  weight for this iteration     100.00

 eigenvalues of (default mixing * dielectric matrix)
  average eigenvalue GAMMA=   0.6519
  1.6559  1.2174  1.2174  0.5564  0.5564  0.5283  0.4139  0.4139  0.2746  0.1685
  0.1685

 Free energy of the ion-electron system (eV)
  ---------------------------------------------------
  alpha Z        PSCENC =       248.28095292
  Ewald energy   TEWEN  =     47164.57967162
  -Hartree energ DENC   =    -62257.22389627
  -exchange      EXHF   =         0.00000000
  -V(xc)+E(xc)   XCENC  =       737.49067016
  PAW double counting   =     17587.13210377   -17981.83683712
  entropy T*S    EENTRO =        -0.00876284
  eigenvalues    EBANDS =     -1273.09488022
  atomic energy  EATOM  =     15644.37171969
  Solvation  Ediel_sol  =         0.00000000
  ---------------------------------------------------
  free energy    TOTEN  =      -130.30925830 eV

  energy without entropy =     -130.30049546  energy(sigma->0) =     -130.30487688


--------------------------------------------------------------------------------------------------------




--------------------------------------- Iteration      1(  17)  ---------------------------------------


    POTLOK:  cpu time      0.0654: real time      0.0657
    SETDIJ:  cpu time      0.0060: real time      0.0060
     EDDAV:  cpu time      2.4492: real time      2.4648
       DOS:  cpu time      0.0016: real time      0.0016
    CHARGE:  cpu time      0.1538: real time      0.1544
    MIXING:  cpu time      0.0022: real time      0.0022
    --------------------------------------------
      LOOP:  cpu time      2.6783: real time      2.6947

 eigenvalue-minimisations  :  3176
 total energy-change (2. order) :-0.6247657E+01  (-0.2842440E+00)
 number of electron     184.9999967 magnetization      18.3290693
 augmentation part       59.3545943 magnetization      16.3400375

 Broyden mixing:
  rms(total) = 0.13462E+01    rms(broyden)= 0.13462E+01
  rms(prec ) = 0.13754E+01
  weight for this iteration     100.00

 eigenvalues of (default mixing * dielectric matrix)
  average eigenvalue GAMMA=   0.6454
  1.6990  1.2118  1.2118  0.6666  0.6666  0.4882  0.4224  0.4224  0.1685  0.1685
  0.3476  0.2716

 Free energy of the ion-electron system (eV)
  ---------------------------------------------------
  alpha Z        PSCENC =       248.28095292
  Ewald energy   TEWEN  =     47164.57967162
  -Hartree energ DENC   =    -62290.46646033
  -exchange      EXHF   =         0.00000000
  -V(xc)+E(xc)   XCENC  =       734.28001350
  PAW double counting   =     17706.68506017   -18100.09626758
  entropy T*S    EENTRO =        -0.00949372
  eigenvalues    EBANDS =     -1244.18211177
  atomic energy  EATOM  =     15644.37171969
  Solvation  Ediel_sol  =         0.00000000
  ---------------------------------------------------
  free energy    TOTEN  =      -136.55691549 eV

  energy without entropy =     -136.54742178  energy(sigma->0) =     -136.55216863


--------------------------------------------------------------------------------------------------------




--------------------------------------- Iteration      1(  18)  ---------------------------------------


    POTLOK:  cpu time      0.0652: real time      0.0656
    SETDIJ:  cpu time      0.0060: real time      0.0060
     EDDAV:  cpu time      2.4860: real time      2.4975
       DOS:  cpu time      0.0016: real time      0.0016
    CHARGE:  cpu time      0.1706: real time      0.1713
    MIXING:  cpu time      0.0021: real time      0.0021
    --------------------------------------------
      LOOP:  cpu time      2.7315: real time      2.7441

 eigenvalue-minimisations  :  3144
 total energy-change (2. order) :-0.3089145E+01  (-0.1681971E+00)
 number of electron     184.9999967 magnetization      16.7836397
 augmentation part       59.4031215 magnetization      14.8541820

 Broyden mixing:
  rms(total) = 0.11281E+01    rms(broyden)= 0.11281E+01
  rms(prec ) = 0.11511E+01
  weight for this iteration     100.00

 eigenvalues of (default mixing * dielectric matrix)
  average eigenvalue GAMMA=   0.6826
  1.3682  1.3682  1.1708  1.1708  0.6973  0.5249  0.5249  0.5891  0.4235  0.4235
  0.1685  0.1685  0.2751

 Free energy of the ion-electron system (eV)
  ---------------------------------------------------
  alpha Z        PSCENC =       248.28095292
  Ewald energy   TEWEN  =     47164.57967162
  -Hartree energ DENC   =    -62297.57661249
  -exchange      EXHF   =         0.00000000
  -V(xc)+E(xc)   XCENC  =       732.25914957
  PAW double counting   =     17741.08374717   -18135.38806527
  entropy T*S    EENTRO =        -0.00979554
  eigenvalues    EBANDS =     -1237.24682831
  atomic energy  EATOM  =     15644.37171969
  Solvation  Ediel_sol  =         0.00000000
  ---------------------------------------------------
  free energy    TOTEN  =      -139.64606063 eV

  energy without entropy =     -139.63626509  energy(sigma->0) =     -139.64116286


--------------------------------------------------------------------------------------------------------




--------------------------------------- Iteration      1(  19)  ---------------------------------------


    POTLOK:  cpu time      0.0674: real time      0.0677
    SETDIJ:  cpu time      0.0064: real time      0.0064
     EDDAV:  cpu time      2.3730: real time      2.3860
       DOS:  cpu time      0.0014: real time      0.0014
    CHARGE:  cpu time      0.1576: real time      0.1582
    MIXING:  cpu time      0.0018: real time      0.0018
    --------------------------------------------
      LOOP:  cpu time      2.6076: real time      2.6215

 eigenvalue-minimisations  :  3248
 total energy-change (2. order) :-0.4192490E+01  (-0.2217815E+00)
 number of electron     184.9999967 magnetization      16.1246463
 augmentation part       59.0422465 magnetization      14.3023709

 Broyden mixing:
  rms(total) = 0.96191E+00    rms(broyden)= 0.96188E+00
  rms(prec ) = 0.97528E+00
  weight for this iteration     100.00

 eigenvalues of (default mixing * dielectric matrix)
  average eigenvalue GAMMA=   0.6976
  1.4968  1.4968  1.2168  1.2168  0.6637  0.6637  0.5735  0.5735  0.4412  0.4412
  0.1685  0.1685  0.3720  0.2739

 Free energy of the ion-electron system (eV)
  ---------------------------------------------------
  alpha Z        PSCENC =       248.28095292
  Ewald energy   TEWEN  =     47164.57967162
  -Hartree energ DENC   =    -62312.06400984
  -exchange      EXHF   =         0.00000000
  -V(xc)+E(xc)   XCENC  =       729.60712765
  PAW double counting   =     17736.25379806   -18131.02153872
  entropy T*S    EENTRO =        -0.00811661
  eigenvalues    EBANDS =     -1223.83815509
  atomic energy  EATOM  =     15644.37171969
  Solvation  Ediel_sol  =         0.00000000
  ---------------------------------------------------
  free energy    TOTEN  =      -143.83855032 eV

  energy without entropy =     -143.83043372  energy(sigma->0) =     -143.83449202


--------------------------------------------------------------------------------------------------------




--------------------------------------- Iteration      1(  20)  ---------------------------------------


    POTLOK:  cpu time      0.0650: real time      0.0653
    SETDIJ:  cpu time      0.0060: real time      0.0060
     EDDAV:  cpu time      2.2634: real time      2.2771
       DOS:  cpu time      0.0016: real time      0.0016
    CHARGE:  cpu time      0.1588: real time      0.1594
    MIXING:  cpu time      0.0021: real time      0.0021
    --------------------------------------------
      LOOP:  cpu time      2.4968: real time      2.5115

 eigenvalue-minimisations  :  3048
 total energy-change (2. order) :-0.1113098E+01  (-0.6948644E-01)
 number of electron     184.9999967 magnetization      13.9177962
 augmentation part       59.3029967 magnetization      12.0315717

 Broyden mixing:
  rms(total) = 0.76874E+00    rms(broyden)= 0.76873E+00
  rms(prec ) = 0.78207E+00
  weight for this iteration     100.00

 eigenvalues of (default mixing * dielectric matrix)
  average eigenvalue GAMMA=   0.7701
  1.9477  1.9477  1.1960  1.1960  0.9237  0.9237  0.5487  0.5487  0.4577  0.4577
  0.1685  0.1685  0.2746  0.3965  0.3965

 Free energy of the ion-electron system (eV)
  ---------------------------------------------------
  alpha Z        PSCENC =       248.28095292
  Ewald energy   TEWEN  =     47164.57967162
  -Hartree energ DENC   =    -62308.00274359
  -exchange      EXHF   =         0.00000000
  -V(xc)+E(xc)   XCENC  =       728.49055956
  PAW double counting   =     17716.08822205   -18110.96870436
  entropy T*S    EENTRO =        -0.00825878
  eigenvalues    EBANDS =     -1227.78306725
  atomic energy  EATOM  =     15644.37171969
  Solvation  Ediel_sol  =         0.00000000
  ---------------------------------------------------
  free energy    TOTEN  =      -144.95164814 eV

  energy without entropy =     -144.94338936  energy(sigma->0) =     -144.94751875


--------------------------------------------------------------------------------------------------------




--------------------------------------- Iteration      1(  21)  ---------------------------------------


    POTLOK:  cpu time      0.0762: real time      0.0768
    SETDIJ:  cpu time      0.0063: real time      0.0063
     EDDAV:  cpu time      2.4019: real time      2.4211
       DOS:  cpu time      0.0017: real time      0.0017
    CHARGE:  cpu time      0.1577: real time      0.1586
    MIXING:  cpu time      0.0021: real time      0.0021
    --------------------------------------------
      LOOP:  cpu time      2.6459: real time      2.6666

 eigenvalue-minimisations  :  3160
 total energy-change (2. order) :-0.4718242E+01  (-0.2206510E+00)
 number of electron     184.9999968 magnetization      12.6623498
 augmentation part       59.3226284 magnetization      10.7984378

 Broyden mixing:
  rms(total) = 0.50730E+00    rms(broyden)= 0.50728E+00
  rms(prec ) = 0.52621E+00
  weight for this iteration     100.00

 eigenvalues of (default mixing * dielectric matrix)
  average eigenvalue GAMMA=   0.8073
  2.3382  2.3382  1.1957  1.1957  0.9611  0.9611  0.5538  0.5538  0.1685  0.1685
  0.4577  0.4577  0.2747  0.4578  0.4170  0.4170

 Free energy of the ion-electron system (eV)
  ---------------------------------------------------
  alpha Z        PSCENC =       248.28095292
  Ewald energy   TEWEN  =     47164.57967162
  -Hartree energ DENC   =    -62323.54583479
  -exchange      EXHF   =         0.00000000
  -V(xc)+E(xc)   XCENC  =       725.22535636
  PAW double counting   =     17724.62195270   -18120.96029798
  entropy T*S    EENTRO =        -0.00920649
  eigenvalues    EBANDS =     -1212.23420438
  atomic energy  EATOM  =     15644.37171969
  Solvation  Ediel_sol  =         0.00000000
  ---------------------------------------------------
  free energy    TOTEN  =      -149.66989035 eV

  energy without entropy =     -149.66068386  energy(sigma->0) =     -149.66528711


--------------------------------------------------------------------------------------------------------




--------------------------------------- Iteration      1(  22)  ---------------------------------------


    POTLOK:  cpu time      0.0664: real time      0.0667
    SETDIJ:  cpu time      0.0062: real time      0.0062
     EDDAV:  cpu time      2.1606: real time      2.1718
       DOS:  cpu time      0.0015: real time      0.0045
    CHARGE:  cpu time      0.1742: real time      0.1749
    MIXING:  cpu time      0.0023: real time      0.0023
    --------------------------------------------
      LOOP:  cpu time      2.4112: real time      2.4264

 eigenvalue-minimisations  :  2984
 total energy-change (2. order) :-0.2825014E+01  (-0.1363660E+00)
 number of electron     184.9999968 magnetization      12.0977902
 augmentation part       59.1789411 magnetization      10.3976267

 Broyden mixing:
  rms(total) = 0.47030E+00    rms(broyden)= 0.47028E+00
  rms(prec ) = 0.51281E+00
  weight for this iteration     100.00

 eigenvalues of (default mixing * dielectric matrix)
  average eigenvalue GAMMA=   0.8272
  2.3876  2.3876  1.1780  1.1780  1.1196  1.1196  0.5890  0.5890  0.6112  0.4802
  0.4802  0.1685  0.1685  0.4755  0.4755  0.2747  0.3792

 Free energy of the ion-electron system (eV)
  ---------------------------------------------------
  alpha Z        PSCENC =       248.28095292
  Ewald energy   TEWEN  =     47164.57967162
  -Hartree energ DENC   =    -62329.83948379
  -exchange      EXHF   =         0.00000000
  -V(xc)+E(xc)   XCENC  =       723.61953312
  PAW double counting   =     17701.64445545   -18098.33031927
  entropy T*S    EENTRO =        -0.01163484
  eigenvalues    EBANDS =     -1206.80979934
  atomic energy  EATOM  =     15644.37171969
  Solvation  Ediel_sol  =         0.00000000
  ---------------------------------------------------
  free energy    TOTEN  =      -152.49490445 eV

  energy without entropy =     -152.48326960  energy(sigma->0) =     -152.48908702


--------------------------------------------------------------------------------------------------------




--------------------------------------- Iteration      1(  23)  ---------------------------------------


    POTLOK:  cpu time      0.0660: real time      0.0682
    SETDIJ:  cpu time      0.0063: real time      0.0065
     EDDAV:  cpu time      2.2983: real time      2.3114
       DOS:  cpu time      0.0018: real time      0.0018
    CHARGE:  cpu time      0.1665: real time      0.1672
    MIXING:  cpu time      0.0024: real time      0.0023
    --------------------------------------------
      LOOP:  cpu time      2.5413: real time      2.5573

 eigenvalue-minimisations  :  3176
 total energy-change (2. order) :-0.1763744E+01  (-0.7963620E-01)
 number of electron     184.9999968 magnetization      11.1772875
 augmentation part       59.1102641 magnetization       9.6032270

 Broyden mixing:
  rms(total) = 0.29987E+00    rms(broyden)= 0.29986E+00
  rms(prec ) = 0.33148E+00
  weight for this iteration     100.00

 eigenvalues of (default mixing * dielectric matrix)
  average eigenvalue GAMMA=   0.8287
  2.4559  2.4559  1.1918  1.1918  1.1909  1.1909  0.5573  0.5573  0.6101  0.5628
  0.5628  0.4741  0.4741  0.1685  0.1685  0.2747  0.4476  0.3808

 Free energy of the ion-electron system (eV)
  ---------------------------------------------------
  alpha Z        PSCENC =       248.28095292
  Ewald energy   TEWEN  =     47164.57967162
  -Hartree energ DENC   =    -62327.05676185
  -exchange      EXHF   =         0.00000000
  -V(xc)+E(xc)   XCENC  =       722.40082288
  PAW double counting   =     17677.84076009   -18074.76755267
  entropy T*S    EENTRO =        -0.01057473
  eigenvalues    EBANDS =     -1209.89768688
  atomic energy  EATOM  =     15644.37171969
  Solvation  Ediel_sol  =         0.00000000
  ---------------------------------------------------
  free energy    TOTEN  =      -154.25864893 eV

  energy without entropy =     -154.24807420  energy(sigma->0) =     -154.25336156


--------------------------------------------------------------------------------------------------------




--------------------------------------- Iteration      1(  24)  ---------------------------------------


    POTLOK:  cpu time      0.0689: real time      0.0692
    SETDIJ:  cpu time      0.0065: real time      0.0066
     EDDAV:  cpu time      2.3412: real time      2.3544
       DOS:  cpu time      0.0016: real time      0.0016
    CHARGE:  cpu time      0.1616: real time      0.1673
    MIXING:  cpu time      0.0028: real time      0.0027
    --------------------------------------------
      LOOP:  cpu time      2.5827: real time      2.6019

 eigenvalue-minimisations  :  3120
 total energy-change (2. order) :-0.1681414E+01  (-0.1248890E+00)
 number of electron     184.9999967 magnetization      10.2491575
 augmentation part       59.1770615 magnetization       8.7514730

 Broyden mixing:
  rms(total) = 0.20881E+00    rms(broyden)= 0.20877E+00
  rms(prec ) = 0.21513E+00
  weight for this iteration     100.00

 eigenvalues of (default mixing * dielectric matrix)
  average eigenvalue GAMMA=   0.8919
  4.0809  1.8160  1.2355  1.2355  1.2719  1.2719  0.7377  0.7377  0.5770  0.5770
  0.1685  0.1685  0.4780  0.4780  0.5020  0.5020  0.2747  0.4496  0.3844

 Free energy of the ion-electron system (eV)
  ---------------------------------------------------
  alpha Z        PSCENC =       248.28095292
  Ewald energy   TEWEN  =     47164.57967162
  -Hartree energ DENC   =    -62324.60875902
  -exchange      EXHF   =         0.00000000
  -V(xc)+E(xc)   XCENC  =       721.31071268
  PAW double counting   =     17671.61902653   -18068.32933628
  entropy T*S    EENTRO =        -0.00818758
  eigenvalues    EBANDS =     -1213.15586320
  atomic energy  EATOM  =     15644.37171969
  Solvation  Ediel_sol  =         0.00000000
  ---------------------------------------------------
  free energy    TOTEN  =      -155.94006262 eV

  energy without entropy =     -155.93187505  energy(sigma->0) =     -155.93596883


--------------------------------------------------------------------------------------------------------




--------------------------------------- Iteration      1(  25)  ---------------------------------------


    POTLOK:  cpu time      0.0677: real time      0.0680
    SETDIJ:  cpu time      0.0061: real time      0.0066
     EDDAV:  cpu time      2.3567: real time      2.3714
       DOS:  cpu time      0.0014: real time      0.0014
    CHARGE:  cpu time      0.1662: real time      0.1671
    MIXING:  cpu time      0.0025: real time      0.0025
    --------------------------------------------
      LOOP:  cpu time      2.6006: real time      2.6170

 eigenvalue-minimisations  :  3120
 total energy-change (2. order) :-0.1050564E+01  (-0.7548061E-01)
 number of electron     184.9999967 magnetization       9.7501116
 augmentation part       59.1977236 magnetization       8.3190815

 Broyden mixing:
  rms(total) = 0.18227E+00    rms(broyden)= 0.18225E+00
  rms(prec ) = 0.18889E+00
  weight for this iteration     100.00

 eigenvalues of (default mixing * dielectric matrix)
  average eigenvalue GAMMA=   0.9471
  4.8867  1.7996  1.4127  1.4127  1.2166  1.2166  0.8457  0.8457  0.5743  0.5743
  0.6485  0.6485  0.1685  0.1685  0.4713  0.4713  0.2747  0.4621  0.4621  0.3816

 Free energy of the ion-electron system (eV)
  ---------------------------------------------------
  alpha Z        PSCENC =       248.28095292
  Ewald energy   TEWEN  =     47164.57967162
  -Hartree energ DENC   =    -62326.94590083
  -exchange      EXHF   =         0.00000000
  -V(xc)+E(xc)   XCENC  =       720.72187424
  PAW double counting   =     17649.86894468   -18045.68878187
  entropy T*S    EENTRO =        -0.00827200
  eigenvalues    EBANDS =     -1212.17083524
  atomic energy  EATOM  =     15644.37171969
  Solvation  Ediel_sol  =         0.00000000
  ---------------------------------------------------
  free energy    TOTEN  =      -156.99062679 eV

  energy without entropy =     -156.98235479  energy(sigma->0) =     -156.98649079


--------------------------------------------------------------------------------------------------------




--------------------------------------- Iteration      1(  26)  ---------------------------------------


    POTLOK:  cpu time      0.0695: real time      0.0698
    SETDIJ:  cpu time      0.0064: real time      0.0066
     EDDAV:  cpu time      2.2011: real time      2.2146
       DOS:  cpu time      0.0017: real time      0.0017
    CHARGE:  cpu time      0.1551: real time      0.1555
    MIXING:  cpu time      0.0026: real time      0.0026
    --------------------------------------------
      LOOP:  cpu time      2.4363: real time      2.4507

 eigenvalue-minimisations  :  2880
 total energy-change (2. order) :-0.3985699E+00  (-0.1735926E-01)
 number of electron     184.9999967 magnetization       9.5973057
 augmentation part       59.1432416 magnetization       8.2010250

 Broyden mixing:
  rms(total) = 0.15366E+00    rms(broyden)= 0.15365E+00
  rms(prec ) = 0.15841E+00
  weight for this iteration     100.00

 eigenvalues of (default mixing * dielectric matrix)
  average eigenvalue GAMMA=   0.9526
  4.9607  2.0559  1.4381  1.4381  1.2304  1.2304  0.9288  0.9288  0.6390  0.6390
  0.5677  0.5677  0.1685  0.1685  0.4701  0.4701  0.2747  0.4906  0.4906  0.4629
  0.3835

 Free energy of the ion-electron system (eV)
  ---------------------------------------------------
  alpha Z        PSCENC =       248.28095292
  Ewald energy   TEWEN  =     47164.57967162
  -Hartree energ DENC   =    -62321.78726165
  -exchange      EXHF   =         0.00000000
  -V(xc)+E(xc)   XCENC  =       720.18898045
  PAW double counting   =     17627.47663483   -18024.18721486
  entropy T*S    EENTRO =        -0.00845508
  eigenvalues    EBANDS =     -1216.30422459
  atomic energy  EATOM  =     15644.37171969
  Solvation  Ediel_sol  =         0.00000000
  ---------------------------------------------------
  free energy    TOTEN  =      -157.38919667 eV

  energy without entropy =     -157.38074159  energy(sigma->0) =     -157.38496913


--------------------------------------------------------------------------------------------------------




--------------------------------------- Iteration      1(  27)  ---------------------------------------


    POTLOK:  cpu time      0.0678: real time      0.0682
    SETDIJ:  cpu time      0.0063: real time      0.0063
     EDDAV:  cpu time      2.3596: real time      2.3729
       DOS:  cpu time      0.0015: real time      0.0015
    CHARGE:  cpu time      0.1647: real time      0.1652
    MIXING:  cpu time      0.0026: real time      0.0026
    --------------------------------------------
      LOOP:  cpu time      2.6025: real time      2.6167

 eigenvalue-minimisations  :  3232
 total energy-change (2. order) :-0.1942859E+00  (-0.4470932E-02)
 number of electron     184.9999967 magnetization       9.3244620
 augmentation part       59.1763284 magnetization       7.9216034

 Broyden mixing:
  rms(total) = 0.11063E+00    rms(broyden)= 0.11063E+00
  rms(prec ) = 0.11350E+00
  weight for this iteration     100.00

 eigenvalues of (default mixing * dielectric matrix)
  average eigenvalue GAMMA=   1.0108
  5.4127  2.3445  1.7202  1.7202  1.2200  1.2200  1.0057  1.0057  0.7297  0.7297
  0.5681  0.5681  0.1685  0.1685  0.5604  0.5604  0.4719  0.4719  0.2747  0.4670
  0.4670  0.3826

 Free energy of the ion-electron system (eV)
  ---------------------------------------------------
  alpha Z        PSCENC =       248.28095292
  Ewald energy   TEWEN  =     47164.57967162
  -Hartree energ DENC   =    -62314.42153262
  -exchange      EXHF   =         0.00000000
  -V(xc)+E(xc)   XCENC  =       719.81486305
  PAW double counting   =     17609.86718848   -18007.07937484
  entropy T*S    EENTRO =        -0.00929806
  eigenvalues    EBANDS =     -1222.98767282
  atomic energy  EATOM  =     15644.37171969
  Solvation  Ediel_sol  =         0.00000000
  ---------------------------------------------------
  free energy    TOTEN  =      -157.58348259 eV

  energy without entropy =     -157.57418452  energy(sigma->0) =     -157.57883356


--------------------------------------------------------------------------------------------------------




--------------------------------------- Iteration      1(  28)  ---------------------------------------


    POTLOK:  cpu time      0.0649: real time      0.0654
    SETDIJ:  cpu time      0.0059: real time      0.0060
     EDDAV:  cpu time      2.3695: real time      2.3882
       DOS:  cpu time      0.0015: real time      0.0015
    CHARGE:  cpu time      0.1691: real time      0.1699
    MIXING:  cpu time      0.0025: real time      0.0025
    --------------------------------------------
      LOOP:  cpu time      2.6134: real time      2.6335

 eigenvalue-minimisations  :  3104
 total energy-change (2. order) :-0.1568140E+00  (-0.3968610E-02)
 number of electron     184.9999967 magnetization       9.3235860
 augmentation part       59.2201231 magnetization       7.9113489

 Broyden mixing:
  rms(total) = 0.13983E+00    rms(broyden)= 0.13982E+00
  rms(prec ) = 0.14770E+00
  weight for this iteration     100.00

 eigenvalues of (default mixing * dielectric matrix)
  average eigenvalue GAMMA=   0.9892
  5.3817  1.9775  1.9216  1.9216  1.2169  1.2169  1.0644  1.0644  0.7317  0.7317
  0.5714  0.5714  0.1685  0.1685  0.5420  0.5420  0.4733  0.4733  0.2747  0.4626
  0.4626  0.3822  0.4306

 Free energy of the ion-electron system (eV)
  ---------------------------------------------------
  alpha Z        PSCENC =       248.28095292
  Ewald energy   TEWEN  =     47164.57967162
  -Hartree energ DENC   =    -62307.90246850
  -exchange      EXHF   =         0.00000000
  -V(xc)+E(xc)   XCENC  =       719.60435005
  PAW double counting   =     17604.73846846   -18001.81003604
  entropy T*S    EENTRO =        -0.01250939
  eigenvalues    EBANDS =     -1229.59044540
  atomic energy  EATOM  =     15644.37171969
  Solvation  Ediel_sol  =         0.00000000
  ---------------------------------------------------
  free energy    TOTEN  =      -157.74029659 eV

  energy without entropy =     -157.72778720  energy(sigma->0) =     -157.73404190


--------------------------------------------------------------------------------------------------------




--------------------------------------- Iteration      1(  29)  ---------------------------------------


    POTLOK:  cpu time      0.0676: real time      0.0678
    SETDIJ:  cpu time      0.0063: real time      0.0064
     EDDAV:  cpu time      2.3281: real time      2.3388
       DOS:  cpu time      0.0014: real time      0.0015
    CHARGE:  cpu time      0.1547: real time      0.1555
    MIXING:  cpu time      0.0029: real time      0.0029
    --------------------------------------------
      LOOP:  cpu time      2.5610: real time      2.5729

 eigenvalue-minimisations  :  2960
 total energy-change (2. order) : 0.2202688E-01  (-0.1866794E-02)
 number of electron     184.9999967 magnetization       9.1931119
 augmentation part       59.2177251 magnetization       7.7799666

 Broyden mixing:
  rms(total) = 0.76529E-01    rms(broyden)= 0.76528E-01
  rms(prec ) = 0.86293E-01
  weight for this iteration     100.00

 eigenvalues of (default mixing * dielectric matrix)
  average eigenvalue GAMMA=   1.0457
  5.6833  2.5095  2.5095  1.6534  1.2150  1.2150  1.1476  1.1476  0.7603  0.7603
  0.6878  0.6878  0.5727  0.5727  0.1685  0.1685  0.4709  0.4709  0.5572  0.5572
  0.2747  0.4622  0.4622  0.3823

 Free energy of the ion-electron system (eV)
  ---------------------------------------------------
  alpha Z        PSCENC =       248.28095292
  Ewald energy   TEWEN  =     47164.57967162
  -Hartree energ DENC   =    -62305.98993622
  -exchange      EXHF   =         0.00000000
  -V(xc)+E(xc)   XCENC  =       719.65838247
  PAW double counting   =     17612.57250300   -18009.67541193
  entropy T*S    EENTRO =        -0.01217135
  eigenvalues    EBANDS =     -1231.50397990
  atomic energy  EATOM  =     15644.37171969
  Solvation  Ediel_sol  =         0.00000000
  ---------------------------------------------------
  free energy    TOTEN  =      -157.71826971 eV

  energy without entropy =     -157.70609836  energy(sigma->0) =     -157.71218404


--------------------------------------------------------------------------------------------------------




--------------------------------------- Iteration      1(  30)  ---------------------------------------


    POTLOK:  cpu time      0.0682: real time      0.0685
    SETDIJ:  cpu time      0.0061: real time      0.0061
     EDDAV:  cpu time      2.3329: real time      2.3453
       DOS:  cpu time      0.0014: real time      0.0015
    CHARGE:  cpu time      0.1598: real time      0.1603
    MIXING:  cpu time      0.0032: real time      0.0032
    --------------------------------------------
      LOOP:  cpu time      2.5716: real time      2.5849

 eigenvalue-minimisations  :  3120
 total energy-change (2. order) :-0.2679576E-01  (-0.1582118E-02)
 number of electron     184.9999967 magnetization       9.1162020
 augmentation part       59.2075184 magnetization       7.7036665

 Broyden mixing:
  rms(total) = 0.44456E-01    rms(broyden)= 0.44446E-01
  rms(prec ) = 0.50162E-01
  weight for this iteration     100.00

 eigenvalues of (default mixing * dielectric matrix)
  average eigenvalue GAMMA=   1.0725
  6.3350  2.7096  2.7096  1.4859  1.2127  1.2127  1.2583  1.2583  0.7500  0.7500
  0.5715  0.5715  0.6287  0.6287  0.6949  0.1685  0.1685  0.6444  0.4706  0.4706
  0.2747  0.5159  0.4698  0.4698  0.3824

 Free energy of the ion-electron system (eV)
  ---------------------------------------------------
  alpha Z        PSCENC =       248.28095292
  Ewald energy   TEWEN  =     47164.57967162
  -Hartree energ DENC   =    -62301.81422203
  -exchange      EXHF   =         0.00000000
  -V(xc)+E(xc)   XCENC  =       719.57083777
  PAW double counting   =     17611.77059862   -18008.94683444
  entropy T*S    EENTRO =        -0.01112861
  eigenvalues    EBANDS =     -1235.54666102
  atomic energy  EATOM  =     15644.37171969
  Solvation  Ediel_sol  =         0.00000000
  ---------------------------------------------------
  free energy    TOTEN  =      -157.74506547 eV

  energy without entropy =     -157.73393687  energy(sigma->0) =     -157.73950117


--------------------------------------------------------------------------------------------------------




--------------------------------------- Iteration      1(  31)  ---------------------------------------


    POTLOK:  cpu time      0.0673: real time      0.0676
    SETDIJ:  cpu time      0.0063: real time      0.0063
     EDDAV:  cpu time      2.2579: real time      2.2700
       DOS:  cpu time      0.0014: real time      0.0014
    CHARGE:  cpu time      0.1597: real time      0.1604
    MIXING:  cpu time      0.0029: real time      0.0029
    --------------------------------------------
      LOOP:  cpu time      2.4955: real time      2.5086

 eigenvalue-minimisations  :  3072
 total energy-change (2. order) :-0.3447580E-01  (-0.5097305E-03)
 number of electron     184.9999967 magnetization       9.0892781
 augmentation part       59.2148396 magnetization       7.6735918

 Broyden mixing:
  rms(total) = 0.44822E-01    rms(broyden)= 0.44818E-01
  rms(prec ) = 0.46174E-01
  weight for this iteration     100.00

 eigenvalues of (default mixing * dielectric matrix)
  average eigenvalue GAMMA=   1.0603
  6.4834  2.5791  2.5791  1.5556  1.2110  1.2110  1.2085  1.2085  1.0648  0.7469
  0.7469  0.6589  0.6589  0.1685  0.1685  0.5687  0.5687  0.2747  0.4712  0.4712
  0.5739  0.5426  0.5426  0.3823  0.4612  0.4612

 Free energy of the ion-electron system (eV)
  ---------------------------------------------------
  alpha Z        PSCENC =       248.28095292
  Ewald energy   TEWEN  =     47164.57967162
  -Hartree energ DENC   =    -62300.60169323
  -exchange      EXHF   =         0.00000000
  -V(xc)+E(xc)   XCENC  =       719.51990750
  PAW double counting   =     17614.26551852   -18011.44261681
  entropy T*S    EENTRO =        -0.01016041
  eigenvalues    EBANDS =     -1236.74284107
  atomic energy  EATOM  =     15644.37171969
  Solvation  Ediel_sol  =         0.00000000
  ---------------------------------------------------
  free energy    TOTEN  =      -157.77954128 eV

  energy without entropy =     -157.76938087  energy(sigma->0) =     -157.77446107


--------------------------------------------------------------------------------------------------------




--------------------------------------- Iteration      1(  32)  ---------------------------------------


    POTLOK:  cpu time      0.0673: real time      0.0676
    SETDIJ:  cpu time      0.0063: real time      0.0063
     EDDAV:  cpu time      2.2565: real time      2.2756
       DOS:  cpu time      0.0015: real time      0.0015
    CHARGE:  cpu time      0.1626: real time      0.1632
    MIXING:  cpu time      0.0028: real time      0.0027
    --------------------------------------------
      LOOP:  cpu time      2.4969: real time      2.5170

 eigenvalue-minimisations  :  3104
 total energy-change (2. order) :-0.3945457E-01  (-0.2736543E-03)
 number of electron     184.9999967 magnetization       9.0647251
 augmentation part       59.2084871 magnetization       7.6467254

 Broyden mixing:
  rms(total) = 0.39882E-01    rms(broyden)= 0.39880E-01
  rms(prec ) = 0.40635E-01
  weight for this iteration     100.00

 eigenvalues of (default mixing * dielectric matrix)
  average eigenvalue GAMMA=   1.0626
  6.6520  2.3362  2.3362  2.3383  1.2050  1.2050  1.2082  1.2082  0.8059  0.8059
  0.8585  0.7396  0.7396  0.5714  0.5714  0.1685  0.1685  0.6036  0.6036  0.4707
  0.4707  0.2747  0.5111  0.5111  0.4721  0.4721  0.3825

 Free energy of the ion-electron system (eV)
  ---------------------------------------------------
  alpha Z        PSCENC =       248.28095292
  Ewald energy   TEWEN  =     47164.57967162
  -Hartree energ DENC   =    -62300.28597930
  -exchange      EXHF   =         0.00000000
  -V(xc)+E(xc)   XCENC  =       719.47455109
  PAW double counting   =     17612.24677516   -18009.46157997
  entropy T*S    EENTRO =        -0.00967099
  eigenvalues    EBANDS =     -1237.01543605
  atomic energy  EATOM  =     15644.37171969
  Solvation  Ediel_sol  =         0.00000000
  ---------------------------------------------------
  free energy    TOTEN  =      -157.81899585 eV

  energy without entropy =     -157.80932486  energy(sigma->0) =     -157.81416035


--------------------------------------------------------------------------------------------------------




--------------------------------------- Iteration      1(  33)  ---------------------------------------


    POTLOK:  cpu time      0.0673: real time      0.0678
    SETDIJ:  cpu time      0.0063: real time      0.0064
     EDDAV:  cpu time      2.5679: real time      2.5825
       DOS:  cpu time      0.0016: real time      0.0016
    CHARGE:  cpu time      0.1671: real time      0.1676
    MIXING:  cpu time      0.0034: real time      0.0033
    --------------------------------------------
      LOOP:  cpu time      2.8135: real time      2.8294

 eigenvalue-minimisations  :  3448
 total energy-change (2. order) :-0.2305408E-01  (-0.1251215E-03)
 number of electron     184.9999967 magnetization       9.0392221
 augmentation part       59.2070337 magnetization       7.6185216

 Broyden mixing:
  rms(total) = 0.26052E-01    rms(broyden)= 0.26051E-01
  rms(prec ) = 0.26931E-01
  weight for this iteration     100.00

 eigenvalues of (default mixing * dielectric matrix)
  average eigenvalue GAMMA=   1.0756
  6.7469  2.3854  2.3854  2.3560  1.1987  1.1987  1.2983  1.2983  1.0210  1.0210
  0.7445  0.7445  0.1685  0.1685  0.5713  0.5713  0.6210  0.6210  0.6527  0.6123
  0.6123  0.4709  0.4709  0.2747  0.5896  0.4654  0.4654  0.3824

 Free energy of the ion-electron system (eV)
  ---------------------------------------------------
  alpha Z        PSCENC =       248.28095292
  Ewald energy   TEWEN  =     47164.57967162
  -Hartree energ DENC   =    -62300.06725834
  -exchange      EXHF   =         0.00000000
  -V(xc)+E(xc)   XCENC  =       719.44586199
  PAW double counting   =     17609.31945695   -18006.49076106
  entropy T*S    EENTRO =        -0.00943283
  eigenvalues    EBANDS =     -1237.27226087
  atomic energy  EATOM  =     15644.37171969
  Solvation  Ediel_sol  =         0.00000000
  ---------------------------------------------------
  free energy    TOTEN  =      -157.84204993 eV

  energy without entropy =     -157.83261709  energy(sigma->0) =     -157.83733351


--------------------------------------------------------------------------------------------------------




--------------------------------------- Iteration      1(  34)  ---------------------------------------


    POTLOK:  cpu time      0.0684: real time      0.0688
    SETDIJ:  cpu time      0.0064: real time      0.0064
     EDDAV:  cpu time      2.4589: real time      2.4737
       DOS:  cpu time      0.0014: real time      0.0014
    CHARGE:  cpu time      0.1715: real time      0.1724
    MIXING:  cpu time      0.0035: real time      0.0035
    --------------------------------------------
      LOOP:  cpu time      2.7101: real time      2.7262

 eigenvalue-minimisations  :  3400
 total energy-change (2. order) :-0.1210748E-01  (-0.9757868E-04)
 number of electron     184.9999967 magnetization       9.0367334
 augmentation part       59.2041232 magnetization       7.6081431

 Broyden mixing:
  rms(total) = 0.21143E-01    rms(broyden)= 0.21142E-01
  rms(prec ) = 0.22330E-01
  weight for this iteration     100.00

 eigenvalues of (default mixing * dielectric matrix)
  average eigenvalue GAMMA=   1.0746
  6.7753  2.3585  2.3585  2.1188  1.2061  1.2061  1.3275  1.3275  1.2046  1.2046
  0.7597  0.7597  0.7972  0.7972  0.1685  0.1685  0.6643  0.6643  0.5709  0.5709
  0.2747  0.4709  0.4709  0.5763  0.5763  0.3824  0.4658  0.4658  0.4710

 Free energy of the ion-electron system (eV)
  ---------------------------------------------------
  alpha Z        PSCENC =       248.28095292
  Ewald energy   TEWEN  =     47164.57967162
  -Hartree energ DENC   =    -62299.54410907
  -exchange      EXHF   =         0.00000000
  -V(xc)+E(xc)   XCENC  =       719.44628137
  PAW double counting   =     17610.75267097   -18007.84423382
  entropy T*S    EENTRO =        -0.00916179
  eigenvalues    EBANDS =     -1237.88794929
  atomic energy  EATOM  =     15644.37171969
  Solvation  Ediel_sol  =         0.00000000
  ---------------------------------------------------
  free energy    TOTEN  =      -157.85415741 eV

  energy without entropy =     -157.84499562  energy(sigma->0) =     -157.84957652


--------------------------------------------------------------------------------------------------------




--------------------------------------- Iteration      1(  35)  ---------------------------------------


    POTLOK:  cpu time      0.0696: real time      0.0699
    SETDIJ:  cpu time      0.0065: real time      0.0066
     EDDAV:  cpu time      2.4077: real time      2.4204
       DOS:  cpu time      0.0017: real time      0.0017
    CHARGE:  cpu time      0.1660: real time      0.1667
    MIXING:  cpu time      0.0034: real time      0.0034
    --------------------------------------------
      LOOP:  cpu time      2.6550: real time      2.6687

 eigenvalue-minimisations  :  3320
 total energy-change (2. order) :-0.3960822E-02  (-0.6360870E-04)
 number of electron     184.9999967 magnetization       9.0307684
 augmentation part       59.2056327 magnetization       7.5962013

 Broyden mixing:
  rms(total) = 0.16683E-01    rms(broyden)= 0.16682E-01
  rms(prec ) = 0.18271E-01
  weight for this iteration     100.00

 eigenvalues of (default mixing * dielectric matrix)
  average eigenvalue GAMMA=   1.1110
  6.8668  2.6756  2.6756  2.1075  1.6344  1.6344  1.2080  1.2080  1.2681  1.2681
  0.8469  0.8469  0.7452  0.7452  0.1685  0.1685  0.5716  0.5716  0.6386  0.6386
  0.2747  0.4708  0.4708  0.6024  0.6024  0.3824  0.5523  0.5523  0.4666  0.4666

 Free energy of the ion-electron system (eV)
  ---------------------------------------------------
  alpha Z        PSCENC =       248.28095292
  Ewald energy   TEWEN  =     47164.57967162
  -Hartree energ DENC   =    -62298.51420201
  -exchange      EXHF   =         0.00000000
  -V(xc)+E(xc)   XCENC  =       719.43528824
  PAW double counting   =     17612.30327375   -18009.45412629
  entropy T*S    EENTRO =        -0.00905948
  eigenvalues    EBANDS =     -1238.85163668
  atomic energy  EATOM  =     15644.37171969
  Solvation  Ediel_sol  =         0.00000000
  ---------------------------------------------------
  free energy    TOTEN  =      -157.85811823 eV

  energy without entropy =     -157.84905875  energy(sigma->0) =     -157.85358849


--------------------------------------------------------------------------------------------------------




--------------------------------------- Iteration      1(  36)  ---------------------------------------


    POTLOK:  cpu time      0.0671: real time      0.0677
    SETDIJ:  cpu time      0.0064: real time      0.0064
     EDDAV:  cpu time      2.6162: real time      2.6358
       DOS:  cpu time      0.0014: real time      0.0014
    CHARGE:  cpu time      0.1541: real time      0.1547
    MIXING:  cpu time      0.0031: real time      0.0031
    --------------------------------------------
      LOOP:  cpu time      2.8484: real time      2.8691

 eigenvalue-minimisations  :  3424
 total energy-change (2. order) :-0.5761200E-02  (-0.5788883E-04)
 number of electron     184.9999967 magnetization       9.0333586
 augmentation part       59.2055123 magnetization       7.5885901

 Broyden mixing:
  rms(total) = 0.16633E-01    rms(broyden)= 0.16632E-01
  rms(prec ) = 0.18216E-01
  weight for this iteration     100.00

 eigenvalues of (default mixing * dielectric matrix)
  average eigenvalue GAMMA=   1.1493
  6.7601  3.3069  3.3069  2.0930  2.0930  1.4919  1.2074  1.2074  1.2977  1.2977
  0.8874  0.8874  0.7461  0.7461  0.1685  0.1685  0.5714  0.5714  0.6321  0.6321
  0.6859  0.6859  0.2747  0.4709  0.4709  0.5805  0.5805  0.3824  0.4666  0.4666
  0.4897

 Free energy of the ion-electron system (eV)
  ---------------------------------------------------
  alpha Z        PSCENC =       248.28095292
  Ewald energy   TEWEN  =     47164.57967162
  -Hartree energ DENC   =    -62296.68978636
  -exchange      EXHF   =         0.00000000
  -V(xc)+E(xc)   XCENC  =       719.42586771
  PAW double counting   =     17613.64496326   -18010.81864094
  entropy T*S    EENTRO =        -0.00900525
  eigenvalues    EBANDS =     -1240.64962209
  atomic energy  EATOM  =     15644.37171969
  Solvation  Ediel_sol  =         0.00000000
  ---------------------------------------------------
  free energy    TOTEN  =      -157.86387943 eV

  energy without entropy =     -157.85487418  energy(sigma->0) =     -157.85937681


--------------------------------------------------------------------------------------------------------




--------------------------------------- Iteration      1(  37)  ---------------------------------------


    POTLOK:  cpu time      0.0659: real time      0.0661
    SETDIJ:  cpu time      0.0060: real time      0.0060
     EDDAV:  cpu time      2.3790: real time      2.3916
       DOS:  cpu time      0.0036: real time      0.0036
    CHARGE:  cpu time      0.1646: real time      0.1652
    MIXING:  cpu time      0.0036: real time      0.0036
    --------------------------------------------
      LOOP:  cpu time      2.6226: real time      2.6361

 eigenvalue-minimisations  :  3216
 total energy-change (2. order) :-0.2671669E-02  (-0.5152871E-04)
 number of electron     184.9999967 magnetization       9.0220163
 augmentation part       59.2099495 magnetization       7.5674759

 Broyden mixing:
  rms(total) = 0.13813E-01    rms(broyden)= 0.13811E-01
  rms(prec ) = 0.14940E-01
  weight for this iteration     100.00

 eigenvalues of (default mixing * dielectric matrix)
  average eigenvalue GAMMA=   1.1573
  6.9338  3.3360  3.3360  1.9393  1.9393  2.0179  1.2083  1.2083  1.2888  1.2888
  1.0168  1.0168  0.7544  0.7544  0.1685  0.1685  0.7578  0.7578  0.5712  0.5712
  0.6445  0.6445  0.2747  0.4709  0.4709  0.5758  0.5758  0.3824  0.4673  0.4673
  0.5136  0.5136

 Free energy of the ion-electron system (eV)
  ---------------------------------------------------
  alpha Z        PSCENC =       248.28095292
  Ewald energy   TEWEN  =     47164.57967162
  -Hartree energ DENC   =    -62294.92568280
  -exchange      EXHF   =         0.00000000
  -V(xc)+E(xc)   XCENC  =       719.41576175
  PAW double counting   =     17614.72046878   -18011.92882850
  entropy T*S    EENTRO =        -0.00912904
  eigenvalues    EBANDS =     -1242.37148553
  atomic energy  EATOM  =     15644.37171969
  Solvation  Ediel_sol  =         0.00000000
  ---------------------------------------------------
  free energy    TOTEN  =      -157.86655110 eV

  energy without entropy =     -157.85742207  energy(sigma->0) =     -157.86198658


--------------------------------------------------------------------------------------------------------




--------------------------------------- Iteration      1(  38)  ---------------------------------------


    POTLOK:  cpu time      0.0746: real time      0.0749
    SETDIJ:  cpu time      0.0062: real time      0.0063
     EDDAV:  cpu time      2.2543: real time      2.2680
       DOS:  cpu time      0.0016: real time      0.0015
    CHARGE:  cpu time      0.1560: real time      0.1566
    MIXING:  cpu time      0.0038: real time      0.0038
    --------------------------------------------
      LOOP:  cpu time      2.4964: real time      2.5112

 eigenvalue-minimisations  :  3040
 total energy-change (2. order) :-0.1542154E-02  (-0.3782173E-04)
 number of electron     184.9999967 magnetization       9.0182010
 augmentation part       59.2083209 magnetization       7.5600760

 Broyden mixing:
  rms(total) = 0.98038E-02    rms(broyden)= 0.98030E-02
  rms(prec ) = 0.10852E-01
  weight for this iteration     100.00

 eigenvalues of (default mixing * dielectric matrix)
  average eigenvalue GAMMA=   1.1378
  6.9657  3.3147  3.3147  2.0899  1.9366  1.9366  1.2085  1.2085  1.2802  1.2802
  1.0531  1.0531  0.7592  0.7592  0.7668  0.7668  0.1685  0.1685  0.6480  0.6480
  0.5712  0.5712  0.2747  0.4709  0.4709  0.5541  0.5541  0.5107  0.5107  0.3824
  0.4637  0.4637  0.4229

 Free energy of the ion-electron system (eV)
  ---------------------------------------------------
  alpha Z        PSCENC =       248.28095292
  Ewald energy   TEWEN  =     47164.57967162
  -Hartree energ DENC   =    -62294.51999219
  -exchange      EXHF   =         0.00000000
  -V(xc)+E(xc)   XCENC  =       719.41308363
  PAW double counting   =     17614.23902656   -18011.43435858
  entropy T*S    EENTRO =        -0.00915222
  eigenvalues    EBANDS =     -1242.78904468
  atomic energy  EATOM  =     15644.37171969
  Solvation  Ediel_sol  =         0.00000000
  ---------------------------------------------------
  free energy    TOTEN  =      -157.86809326 eV

  energy without entropy =     -157.85894103  energy(sigma->0) =     -157.86351715


--------------------------------------------------------------------------------------------------------




--------------------------------------- Iteration      1(  39)  ---------------------------------------


    POTLOK:  cpu time      0.0646: real time      0.0649
    SETDIJ:  cpu time      0.0060: real time      0.0061
     EDDAV:  cpu time      2.1949: real time      2.2048
       DOS:  cpu time      0.0014: real time      0.0014
    CHARGE:  cpu time      0.1540: real time      0.1545
    MIXING:  cpu time      0.0035: real time      0.0035
    --------------------------------------------
      LOOP:  cpu time      2.4244: real time      2.4351

 eigenvalue-minimisations  :  2936
 total energy-change (2. order) :-0.2788996E-03  (-0.8338859E-05)
 number of electron     184.9999967 magnetization       9.0127000
 augmentation part       59.2090281 magnetization       7.5529760

 Broyden mixing:
  rms(total) = 0.87934E-02    rms(broyden)= 0.87932E-02
  rms(prec ) = 0.97097E-02
  weight for this iteration     100.00

 eigenvalues of (default mixing * dielectric matrix)
  average eigenvalue GAMMA=   1.1511
  6.9983  3.1454  3.1454  2.6386  1.9099  1.9099  1.2095  1.2095  1.2230  1.2230
  1.2631  1.2631  0.8417  0.8417  0.7347  0.7347  0.1685  0.1685  0.5712  0.5712
  0.6404  0.6404  0.6902  0.6902  0.2747  0.4709  0.4709  0.5759  0.5759  0.3824
  0.4675  0.4675  0.5095  0.5095

 Free energy of the ion-electron system (eV)
  ---------------------------------------------------
  alpha Z        PSCENC =       248.28095292
  Ewald energy   TEWEN  =     47164.57967162
  -Hartree energ DENC   =    -62294.41217524
  -exchange      EXHF   =         0.00000000
  -V(xc)+E(xc)   XCENC  =       719.41088761
  PAW double counting   =     17614.31572582   -18011.50274181
  entropy T*S    EENTRO =        -0.00918354
  eigenvalues    EBANDS =     -1242.90322922
  atomic energy  EATOM  =     15644.37171969
  Solvation  Ediel_sol  =         0.00000000
  ---------------------------------------------------
  free energy    TOTEN  =      -157.86837216 eV

  energy without entropy =     -157.85918862  energy(sigma->0) =     -157.86378039


--------------------------------------------------------------------------------------------------------




--------------------------------------- Iteration      1(  40)  ---------------------------------------


    POTLOK:  cpu time      0.0636: real time      0.0638
    SETDIJ:  cpu time      0.0059: real time      0.0059
     EDDAV:  cpu time      2.6893: real time      2.7113
       DOS:  cpu time      0.0016: real time      0.0016
    CHARGE:  cpu time      0.1616: real time      0.1624
    MIXING:  cpu time      0.0036: real time      0.0036
    --------------------------------------------
      LOOP:  cpu time      2.9256: real time      2.9486

 eigenvalue-minimisations  :  3576
 total energy-change (2. order) :-0.1284451E-02  (-0.8911754E-05)
 number of electron     184.9999967 magnetization       9.0043000
 augmentation part       59.2093811 magnetization       7.5376581

 Broyden mixing:
  rms(total) = 0.75054E-02    rms(broyden)= 0.75042E-02
  rms(prec ) = 0.79888E-02
  weight for this iteration     100.00

 eigenvalues of (default mixing * dielectric matrix)
  average eigenvalue GAMMA=   1.1902
  7.1740  4.0841  2.9042  2.9042  2.1358  2.1358  1.2076  1.2076  1.2754  1.2754
  1.3565  1.3565  0.9162  0.9162  0.7467  0.7467  0.1685  0.1685  0.5713  0.5713
  0.6388  0.6388  0.6840  0.6840  0.2747  0.4709  0.4709  0.5843  0.5843  0.3824
  0.5178  0.5178  0.4661  0.4661  0.4555

 Free energy of the ion-electron system (eV)
  ---------------------------------------------------
  alpha Z        PSCENC =       248.28095292
  Ewald energy   TEWEN  =     47164.57967162
  -Hartree energ DENC   =    -62293.82249747
  -exchange      EXHF   =         0.00000000
  -V(xc)+E(xc)   XCENC  =       719.40390735
  PAW double counting   =     17613.99124028   -18011.18207680
  entropy T*S    EENTRO =        -0.00926845
  eigenvalues    EBANDS =     -1243.48330575
  atomic energy  EATOM  =     15644.37171969
  Solvation  Ediel_sol  =         0.00000000
  ---------------------------------------------------
  free energy    TOTEN  =      -157.86965661 eV

  energy without entropy =     -157.86038816  energy(sigma->0) =     -157.86502238


--------------------------------------------------------------------------------------------------------




--------------------------------------- Iteration      1(  41)  ---------------------------------------


    POTLOK:  cpu time      0.0674: real time      0.0679
    SETDIJ:  cpu time      0.0062: real time      0.0062
     EDDAV:  cpu time      2.5007: real time      2.5161
       DOS:  cpu time      0.0017: real time      0.0017
    CHARGE:  cpu time      0.1741: real time      0.1765
    MIXING:  cpu time      0.0038: real time      0.0038
    --------------------------------------------
      LOOP:  cpu time      2.7540: real time      2.7723

 eigenvalue-minimisations  :  3616
 total energy-change (2. order) :-0.1296264E-02  (-0.1607840E-04)
 number of electron     184.9999967 magnetization       9.0023577
 augmentation part       59.2097397 magnetization       7.5272425

 Broyden mixing:
  rms(total) = 0.58946E-02    rms(broyden)= 0.58921E-02
  rms(prec ) = 0.61480E-02
  weight for this iteration     100.00

 eigenvalues of (default mixing * dielectric matrix)
  average eigenvalue GAMMA=   1.2566
  7.5115  5.7575  2.9020  2.9020  2.2783  2.2783  1.5108  1.5108  1.2073  1.2073
  1.2835  1.2835  0.9815  0.9815  0.7515  0.7515  0.1685  0.1685  0.7170  0.7170
  0.5713  0.5713  0.6407  0.6407  0.2747  0.6164  0.6164  0.4709  0.4709  0.3824
  0.5672  0.5672  0.4673  0.4673  0.5216  0.5216

 Free energy of the ion-electron system (eV)
  ---------------------------------------------------
  alpha Z        PSCENC =       248.28095292
  Ewald energy   TEWEN  =     47164.57967162
  -Hartree energ DENC   =    -62293.18199760
  -exchange      EXHF   =         0.00000000
  -V(xc)+E(xc)   XCENC  =       719.39882593
  PAW double counting   =     17613.73774322   -18010.91116339
  entropy T*S    EENTRO =        -0.00930774
  eigenvalues    EBANDS =     -1244.13739752
  atomic energy  EATOM  =     15644.37171969
  Solvation  Ediel_sol  =         0.00000000
  ---------------------------------------------------
  free energy    TOTEN  =      -157.87095287 eV

  energy without entropy =     -157.86164514  energy(sigma->0) =     -157.86629900


--------------------------------------------------------------------------------------------------------




--------------------------------------- Iteration      1(  42)  ---------------------------------------


    POTLOK:  cpu time      0.0668: real time      0.0672
    SETDIJ:  cpu time      0.0063: real time      0.0064
     EDDAV:  cpu time      2.5513: real time      2.5651
       DOS:  cpu time      0.0015: real time      0.0015
    CHARGE:  cpu time      0.1663: real time      0.1669
    MIXING:  cpu time      0.0044: real time      0.0044
    --------------------------------------------
      LOOP:  cpu time      2.7967: real time      2.8115

 eigenvalue-minimisations  :  3632
 total energy-change (2. order) :-0.7437771E-03  (-0.1476420E-04)
 number of electron     184.9999967 magnetization       8.9989878
 augmentation part       59.2097299 magnetization       7.5163710

 Broyden mixing:
  rms(total) = 0.47540E-02    rms(broyden)= 0.47514E-02
  rms(prec ) = 0.50579E-02
  weight for this iteration     100.00

 eigenvalues of (default mixing * dielectric matrix)
  average eigenvalue GAMMA=   1.3096
  8.6509  6.3125  2.9351  2.9351  2.3572  2.3572  1.7778  1.7778  1.2079  1.2079
  1.2702  1.2702  0.9777  0.9777  0.7517  0.7517  0.1685  0.1685  0.7452  0.7452
  0.5713  0.5713  0.6400  0.6400  0.2747  0.6865  0.6865  0.4709  0.4709  0.3824
  0.6011  0.6011  0.4671  0.4671  0.5371  0.5371  0.5045

 Free energy of the ion-electron system (eV)
  ---------------------------------------------------
  alpha Z        PSCENC =       248.28095292
  Ewald energy   TEWEN  =     47164.57967162
  -Hartree energ DENC   =    -62292.61075719
  -exchange      EXHF   =         0.00000000
  -V(xc)+E(xc)   XCENC  =       719.39595470
  PAW double counting   =     17613.48861053   -18010.65585225
  entropy T*S    EENTRO =        -0.00929031
  eigenvalues    EBANDS =     -1244.71270636
  atomic energy  EATOM  =     15644.37171969
  Solvation  Ediel_sol  =         0.00000000
  ---------------------------------------------------
  free energy    TOTEN  =      -157.87169665 eV

  energy without entropy =     -157.86240634  energy(sigma->0) =     -157.86705149


--------------------------------------------------------------------------------------------------------




--------------------------------------- Iteration      1(  43)  ---------------------------------------


    POTLOK:  cpu time      0.0679: real time      0.0686
    SETDIJ:  cpu time      0.0064: real time      0.0064
     EDDAV:  cpu time      2.6697: real time      2.6907
       DOS:  cpu time      0.0017: real time      0.0017
    CHARGE:  cpu time      0.1676: real time      0.1686
    MIXING:  cpu time      0.0045: real time      0.0045
    --------------------------------------------
      LOOP:  cpu time      2.9178: real time      2.9405

 eigenvalue-minimisations  :  3760
 total energy-change (2. order) :-0.2623819E-03  (-0.6606802E-05)
 number of electron     184.9999967 magnetization       8.9970729
 augmentation part       59.2099555 magnetization       7.5078442

 Broyden mixing:
  rms(total) = 0.44624E-02    rms(broyden)= 0.44602E-02
  rms(prec ) = 0.47160E-02
  weight for this iteration     100.00

 eigenvalues of (default mixing * dielectric matrix)
  average eigenvalue GAMMA=   1.3816
 11.3119  6.6885  2.9206  2.9206  2.3606  2.3606  1.8930  1.8930  1.2078  1.2078
  1.2712  1.2712  0.9421  0.9421  0.8602  0.8602  0.7512  0.7512  0.1685  0.1685
  0.7281  0.7281  0.5713  0.5713  0.6381  0.6381  0.2747  0.4709  0.4709  0.6009
  0.6009  0.3824  0.5525  0.5525  0.4672  0.4672  0.5169  0.5169

 Free energy of the ion-electron system (eV)
  ---------------------------------------------------
  alpha Z        PSCENC =       248.28095292
  Ewald energy   TEWEN  =     47164.57967162
  -Hartree energ DENC   =    -62292.38401413
  -exchange      EXHF   =         0.00000000
  -V(xc)+E(xc)   XCENC  =       719.39746063
  PAW double counting   =     17613.62751875   -18010.77023832
  entropy T*S    EENTRO =        -0.00929539
  eigenvalues    EBANDS =     -1244.96573481
  atomic energy  EATOM  =     15644.37171969
  Solvation  Ediel_sol  =         0.00000000
  ---------------------------------------------------
  free energy    TOTEN  =      -157.87195903 eV

  energy without entropy =     -157.86266364  energy(sigma->0) =     -157.86731134


--------------------------------------------------------------------------------------------------------




--------------------------------------- Iteration      1(  44)  ---------------------------------------


    POTLOK:  cpu time      0.0688: real time      0.0693
    SETDIJ:  cpu time      0.0063: real time      0.0063
     EDDAV:  cpu time      2.6920: real time      2.7066
       DOS:  cpu time      0.0014: real time      0.0014
    CHARGE:  cpu time      0.1645: real time      0.1653
    MIXING:  cpu time      0.0044: real time      0.0044
    --------------------------------------------
      LOOP:  cpu time      2.9375: real time      2.9533

 eigenvalue-minimisations  :  3728
 total energy-change (2. order) : 0.7165520E-04  (-0.1057477E-04)
 number of electron     184.9999967 magnetization       8.9956199
 augmentation part       59.2102046 magnetization       7.4980439

 Broyden mixing:
  rms(total) = 0.36581E-02    rms(broyden)= 0.36547E-02
  rms(prec ) = 0.39737E-02
  weight for this iteration     100.00

 eigenvalues of (default mixing * dielectric matrix)
  average eigenvalue GAMMA=   1.4375
 13.9833  6.7682  2.6052  2.6052  2.2066  2.2066  2.2705  2.2705  1.2077  1.2077
  1.2712  1.2712  1.0562  1.0562  0.9453  0.9453  0.7517  0.7517  0.1685  0.1685
  0.7363  0.7363  0.5713  0.5713  0.6373  0.6373  0.2747  0.4709  0.4709  0.6136
  0.6136  0.3824  0.5688  0.5688  0.4671  0.4671  0.5261  0.5261  0.5066

 Free energy of the ion-electron system (eV)
  ---------------------------------------------------
  alpha Z        PSCENC =       248.28095292
  Ewald energy   TEWEN  =     47164.57967162
  -Hartree energ DENC   =    -62292.02428011
  -exchange      EXHF   =         0.00000000
  -V(xc)+E(xc)   XCENC  =       719.39403333
  PAW double counting   =     17613.71209851   -18010.85998435
  entropy T*S    EENTRO =        -0.00927866
  eigenvalues    EBANDS =     -1245.31682032
  atomic energy  EATOM  =     15644.37171969
  Solvation  Ediel_sol  =         0.00000000
  ---------------------------------------------------
  free energy    TOTEN  =      -157.87188738 eV

  energy without entropy =     -157.86260871  energy(sigma->0) =     -157.86724804


--------------------------------------------------------------------------------------------------------




--------------------------------------- Iteration      1(  45)  ---------------------------------------


    POTLOK:  cpu time      0.0693: real time      0.0696
    SETDIJ:  cpu time      0.0064: real time      0.0064
     EDDAV:  cpu time      2.5722: real time      2.5882
       DOS:  cpu time      0.0014: real time      0.0044
    CHARGE:  cpu time      0.1543: real time      0.1548
    MIXING:  cpu time      0.0042: real time      0.0042
    --------------------------------------------
      LOOP:  cpu time      2.8078: real time      2.8277

 eigenvalue-minimisations  :  3584
 total energy-change (2. order) : 0.1021417E-03  (-0.1064765E-04)
 number of electron     184.9999967 magnetization       8.9953604
 augmentation part       59.2103930 magnetization       7.4915443

 Broyden mixing:
  rms(total) = 0.34455E-02    rms(broyden)= 0.34428E-02
  rms(prec ) = 0.36755E-02
  weight for this iteration     100.00

 eigenvalues of (default mixing * dielectric matrix)
  average eigenvalue GAMMA=   1.4409
 15.0794  6.8002  3.0119  2.4392  2.4392  2.1743  2.1743  1.8892  1.2076  1.2076
  1.2709  1.2709  1.0973  1.0973  0.9641  0.9641  0.7518  0.7518  0.1685  0.1685
  0.7333  0.7333  0.5713  0.5713  0.6354  0.6354  0.2747  0.6264  0.6264  0.4709
  0.4709  0.3824  0.5742  0.5742  0.4671  0.4671  0.5260  0.5260  0.5036  0.3395

 Free energy of the ion-electron system (eV)
  ---------------------------------------------------
  alpha Z        PSCENC =       248.28095292
  Ewald energy   TEWEN  =     47164.57967162
  -Hartree energ DENC   =    -62291.89541690
  -exchange      EXHF   =         0.00000000
  -V(xc)+E(xc)   XCENC  =       719.39300888
  PAW double counting   =     17613.95547358   -18011.09791993
  entropy T*S    EENTRO =        -0.00928777
  eigenvalues    EBANDS =     -1245.44998733
  atomic energy  EATOM  =     15644.37171969
  Solvation  Ediel_sol  =         0.00000000
  ---------------------------------------------------
  free energy    TOTEN  =      -157.87178523 eV

  energy without entropy =     -157.86249747  energy(sigma->0) =     -157.86714135


--------------------------------------------------------------------------------------------------------




--------------------------------------- Iteration      1(  46)  ---------------------------------------


    POTLOK:  cpu time      0.0661: real time      0.0676
    SETDIJ:  cpu time      0.0061: real time      0.0061
     EDDAV:  cpu time      2.4031: real time      2.4159
       DOS:  cpu time      0.0015: real time      0.0015
    CHARGE:  cpu time      0.1567: real time      0.1573
    MIXING:  cpu time      0.0046: real time      0.0047
    --------------------------------------------
      LOOP:  cpu time      2.6380: real time      2.6531

 eigenvalue-minimisations  :  3304
 total energy-change (2. order) : 0.3834262E-04  (-0.8924390E-05)
 number of electron     184.9999967 magnetization       8.9947844
 augmentation part       59.2104848 magnetization       7.4876935

 Broyden mixing:
  rms(total) = 0.31521E-02    rms(broyden)= 0.31508E-02
  rms(prec ) = 0.33467E-02
  weight for this iteration     100.00

 eigenvalues of (default mixing * dielectric matrix)
  average eigenvalue GAMMA=   1.4470
 16.0006  6.7968  3.0933  2.4669  2.4669  2.1411  2.1411  1.8893  1.2076  1.2076
  1.2718  1.2718  1.0733  1.0733  0.9901  0.9901  0.7519  0.7519  0.1685  0.1685
  0.7491  0.7491  0.5787  0.5787  0.5713  0.5713  0.6362  0.6362  0.2747  0.4709
  0.4709  0.5819  0.5819  0.3824  0.5475  0.5475  0.4671  0.4671  0.5028  0.5206
  0.5206

 Free energy of the ion-electron system (eV)
  ---------------------------------------------------
  alpha Z        PSCENC =       248.28095292
  Ewald energy   TEWEN  =     47164.57967162
  -Hartree energ DENC   =    -62291.82843027
  -exchange      EXHF   =         0.00000000
  -V(xc)+E(xc)   XCENC  =       719.39247521
  PAW double counting   =     17614.04779345   -18011.18930523
  entropy T*S    EENTRO =        -0.00929399
  eigenvalues    EBANDS =     -1245.51733029
  atomic energy  EATOM  =     15644.37171969
  Solvation  Ediel_sol  =         0.00000000
  ---------------------------------------------------
  free energy    TOTEN  =      -157.87174689 eV

  energy without entropy =     -157.86245290  energy(sigma->0) =     -157.86709989


--------------------------------------------------------------------------------------------------------




--------------------------------------- Iteration      1(  47)  ---------------------------------------


    POTLOK:  cpu time      0.0681: real time      0.0685
    SETDIJ:  cpu time      0.0062: real time      0.0062
     EDDAV:  cpu time      2.7253: real time      2.7481
       DOS:  cpu time      0.0016: real time      0.0016
    CHARGE:  cpu time      0.1601: real time      0.1607
    MIXING:  cpu time      0.0047: real time      0.0048
    --------------------------------------------
      LOOP:  cpu time      2.9661: real time      2.9899

 eigenvalue-minimisations  :  3688
 total energy-change (2. order) : 0.1999170E-04  (-0.2582066E-05)
 number of electron     184.9999967 magnetization       8.9958057
 augmentation part       59.2104630 magnetization       7.4857766

 Broyden mixing:
  rms(total) = 0.31048E-02    rms(broyden)= 0.31040E-02
  rms(prec ) = 0.32449E-02
  weight for this iteration     100.00

 eigenvalues of (default mixing * dielectric matrix)
  average eigenvalue GAMMA=   1.6074
 21.3780  6.8923  3.4422  2.8629  2.8629  2.1140  2.1140  1.6102  1.5133  1.5133
  1.2076  1.2076  1.2663  1.2663  0.9690  0.9690  0.7515  0.7515  0.8677  0.8677
  0.1685  0.1685  0.6848  0.6848  0.5713  0.5713  0.6392  0.6392  0.2747  0.4709
  0.4709  0.6238  0.6238  0.3824  0.5726  0.5726  0.5381  0.5381  0.4671  0.4671
  0.5080  0.4438

 Free energy of the ion-electron system (eV)
  ---------------------------------------------------
  alpha Z        PSCENC =       248.28095292
  Ewald energy   TEWEN  =     47164.57967162
  -Hartree energ DENC   =    -62291.79257060
  -exchange      EXHF   =         0.00000000
  -V(xc)+E(xc)   XCENC  =       719.39200958
  PAW double counting   =     17614.05321268   -18011.19276232
  entropy T*S    EENTRO =        -0.00930326
  eigenvalues    EBANDS =     -1245.55465720
  atomic energy  EATOM  =     15644.37171969
  Solvation  Ediel_sol  =         0.00000000
  ---------------------------------------------------
  free energy    TOTEN  =      -157.87172690 eV

  energy without entropy =     -157.86242364  energy(sigma->0) =     -157.86707527


--------------------------------------------------------------------------------------------------------




--------------------------------------- Iteration      1(  48)  ---------------------------------------


    POTLOK:  cpu time      0.0660: real time      0.0662
    SETDIJ:  cpu time      0.0060: real time      0.0060
     EDDAV:  cpu time      2.4929: real time      2.5051
       DOS:  cpu time      0.0017: real time      0.0017
    CHARGE:  cpu time      0.1673: real time      0.1678
    MIXING:  cpu time      0.0054: real time      0.0054
    --------------------------------------------
      LOOP:  cpu time      2.7392: real time      2.7521

 eigenvalue-minimisations  :  3448
 total energy-change (2. order) : 0.1263759E-04  (-0.1898103E-04)
 number of electron     184.9999967 magnetization       8.9976102
 augmentation part       59.2106415 magnetization       7.4712967

 Broyden mixing:
  rms(total) = 0.33774E-02    rms(broyden)= 0.33656E-02
  rms(prec ) = 0.34149E-02
  weight for this iteration     100.00

 eigenvalues of (default mixing * dielectric matrix)
  average eigenvalue GAMMA=   1.5422
 19.6095  6.9185  3.5332  2.9241  2.9241  2.1317  2.1317  1.4765  1.4765  1.2076
  1.2076  1.2641  1.2641  0.9904  0.9904  1.0365  0.9989  0.9989  0.7504  0.7504
  0.6822  0.6822  0.1685  0.1685  0.5713  0.5713  0.6407  0.6407  0.6653  0.6653
  0.2747  0.4709  0.4709  0.6041  0.6041  0.3824  0.5374  0.5374  0.5046  0.4674
  0.4674  0.4764  0.4764

 Free energy of the ion-electron system (eV)
  ---------------------------------------------------
  alpha Z        PSCENC =       248.28095292
  Ewald energy   TEWEN  =     47164.57967162
  -Hartree energ DENC   =    -62291.61036921
  -exchange      EXHF   =         0.00000000
  -V(xc)+E(xc)   XCENC  =       719.38779649
  PAW double counting   =     17614.03068291   -18011.17237610
  entropy T*S    EENTRO =        -0.00930841
  eigenvalues    EBANDS =     -1245.73048418
  atomic energy  EATOM  =     15644.37171969
  Solvation  Ediel_sol  =         0.00000000
  ---------------------------------------------------
  free energy    TOTEN  =      -157.87171426 eV

  energy without entropy =     -157.86240585  energy(sigma->0) =     -157.86706006


--------------------------------------------------------------------------------------------------------




--------------------------------------- Iteration      1(  49)  ---------------------------------------


    POTLOK:  cpu time      0.0691: real time      0.0697
    SETDIJ:  cpu time      0.0063: real time      0.0063
     EDDAV:  cpu time      2.3666: real time      2.3784
       DOS:  cpu time      0.0018: real time      0.0018
    CHARGE:  cpu time      0.1575: real time      0.1580
    MIXING:  cpu time      0.0048: real time      0.0048
    --------------------------------------------
      LOOP:  cpu time      2.6060: real time      2.6189

 eigenvalue-minimisations  :  3240
 total energy-change (2. order) :-0.1445365E-03  (-0.9590617E-05)
 number of electron     184.9999967 magnetization       8.9994719
 augmentation part       59.2108621 magnetization       7.4758060

 Broyden mixing:
  rms(total) = 0.24132E-02    rms(broyden)= 0.24131E-02
  rms(prec ) = 0.25356E-02
  weight for this iteration     100.00

 eigenvalues of (default mixing * dielectric matrix)
  average eigenvalue GAMMA=   1.5290
 18.6653  6.9635  3.6322  3.0873  3.0873  2.1841  2.1841  1.6686  1.6686  1.2076
  1.2076  1.2680  1.2680  1.1919  1.1919  0.9812  0.9812  0.7521  0.7521  0.8292
  0.8292  0.1685  0.1685  0.7343  0.7343  0.5713  0.5713  0.6411  0.6411  0.2747
  0.6282  0.6282  0.4709  0.4709  0.6011  0.6011  0.3824  0.5415  0.5415  0.4671
  0.4671  0.4988  0.4351  0.4351

 Free energy of the ion-electron system (eV)
  ---------------------------------------------------
  alpha Z        PSCENC =       248.28095292
  Ewald energy   TEWEN  =     47164.57967162
  -Hartree energ DENC   =    -62291.70542419
  -exchange      EXHF   =         0.00000000
  -V(xc)+E(xc)   XCENC  =       719.38747401
  PAW double counting   =     17614.08761204   -18011.23743067
  entropy T*S    EENTRO =        -0.00929339
  eigenvalues    EBANDS =     -1245.62714082
  atomic energy  EATOM  =     15644.37171969
  Solvation  Ediel_sol  =         0.00000000
  ---------------------------------------------------
  free energy    TOTEN  =      -157.87185880 eV

  energy without entropy =     -157.86256541  energy(sigma->0) =     -157.86721211


--------------------------------------------------------------------------------------------------------




--------------------------------------- Iteration      1(  50)  ---------------------------------------


    POTLOK:  cpu time      0.0667: real time      0.0670
    SETDIJ:  cpu time      0.0061: real time      0.0061
     EDDAV:  cpu time      2.7153: real time      2.7352
       DOS:  cpu time      0.0015: real time      0.0015
    CHARGE:  cpu time      0.1621: real time      0.1626
    MIXING:  cpu time      0.0057: real time      0.0072
    --------------------------------------------
      LOOP:  cpu time      2.9575: real time      2.9797

 eigenvalue-minimisations  :  3960
 total energy-change (2. order) :-0.1545640E-03  (-0.1841772E-05)
 number of electron     184.9999967 magnetization       8.9980053
 augmentation part       59.2112053 magnetization       7.4679536

 Broyden mixing:
  rms(total) = 0.23239E-02    rms(broyden)= 0.23215E-02
  rms(prec ) = 0.23738E-02
  weight for this iteration     100.00

 eigenvalues of (default mixing * dielectric matrix)
  average eigenvalue GAMMA=   1.4179
 13.8843  6.7229  3.7100  2.6536  2.6536  1.8980  1.7068  1.7068  1.1795  1.1795
  1.2881  1.2881  0.9195  0.9195  1.2027  0.7592  0.7592  0.1598  0.6994  0.6994
  0.2613  0.6754  0.6754  0.5727  0.5727  0.5034  0.5034  0.3485  0.3485  0.6407
  0.6407  0.6474  0.6474  0.4321  0.5661  0.5661  0.5090  0.5090  0.5634  0.5439

 Free energy of the ion-electron system (eV)
  ---------------------------------------------------
  alpha Z        PSCENC =       248.28095292
  Ewald energy   TEWEN  =     47164.57967162
  -Hartree energ DENC   =    -62291.73022427
  -exchange      EXHF   =         0.00000000
  -V(xc)+E(xc)   XCENC  =       719.38628731
  PAW double counting   =     17614.00373239   -18011.15384810
  entropy T*S    EENTRO =        -0.00931370
  eigenvalues    EBANDS =     -1245.60099122
  atomic energy  EATOM  =     15644.37171969
  Solvation  Ediel_sol  =         0.00000000
  ---------------------------------------------------
  free energy    TOTEN  =      -157.87201336 eV

  energy without entropy =     -157.86269967  energy(sigma->0) =     -157.86735651


--------------------------------------------------------------------------------------------------------




--------------------------------------- Iteration      1(  51)  ---------------------------------------


    POTLOK:  cpu time      0.0678: real time      0.0682
    SETDIJ:  cpu time      0.0064: real time      0.0064
     EDDAV:  cpu time      2.7694: real time      2.7829
       DOS:  cpu time      0.0015: real time      0.0015
    CHARGE:  cpu time      0.1716: real time      0.1723
    MIXING:  cpu time      0.0049: real time      0.0049
    --------------------------------------------
      LOOP:  cpu time      3.0216: real time      3.0362

 eigenvalue-minimisations  :  3816
 total energy-change (2. order) : 0.1550774E-04  (-0.6373821E-05)
 number of electron     184.9999967 magnetization       8.9985706
 augmentation part       59.2112275 magnetization       7.4606001

 Broyden mixing:
  rms(total) = 0.13986E-02    rms(broyden)= 0.13908E-02
  rms(prec ) = 0.14116E-02
  weight for this iteration     100.00

 eigenvalues of (default mixing * dielectric matrix)
  average eigenvalue GAMMA=   1.4149
 13.8547  6.7310  3.8984  2.6521  2.6521  1.9817  1.7669  1.7669  1.1841  1.1841
  0.9237  0.9237  1.3993  1.2827  1.2827  0.1600  0.7134  0.7134  0.7665  0.7665
  0.2645  0.6782  0.6782  0.5797  0.5797  0.5090  0.5090  0.6517  0.6517  0.3423
  0.3748  0.5845  0.5845  0.6377  0.6377  0.5338  0.5338  0.4482  0.5742  0.5536
  0.4991

 Free energy of the ion-electron system (eV)
  ---------------------------------------------------
  alpha Z        PSCENC =       248.28095292
  Ewald energy   TEWEN  =     47164.57967162
  -Hartree energ DENC   =    -62291.70468827
  -exchange      EXHF   =         0.00000000
  -V(xc)+E(xc)   XCENC  =       719.38535174
  PAW double counting   =     17614.00915633   -18011.15532424
  entropy T*S    EENTRO =        -0.00931758
  eigenvalues    EBANDS =     -1245.62952007
  atomic energy  EATOM  =     15644.37171969
  Solvation  Ediel_sol  =         0.00000000
  ---------------------------------------------------
  free energy    TOTEN  =      -157.87199785 eV

  energy without entropy =     -157.86268027  energy(sigma->0) =     -157.86733906


--------------------------------------------------------------------------------------------------------




--------------------------------------- Iteration      1(  52)  ---------------------------------------


    POTLOK:  cpu time      0.0698: real time      0.0705
    SETDIJ:  cpu time      0.0069: real time      0.0068
     EDDAV:  cpu time      2.4574: real time      2.4697
       DOS:  cpu time      0.0017: real time      0.0017
    CHARGE:  cpu time      0.1681: real time      0.1688
    MIXING:  cpu time      0.0058: real time      0.0058
    --------------------------------------------
      LOOP:  cpu time      2.7097: real time      2.7233

 eigenvalue-minimisations  :  3400
 total energy-change (2. order) :-0.7580749E-04  (-0.6463605E-05)
 number of electron     184.9999967 magnetization       8.9989616
 augmentation part       59.2110277 magnetization       7.4581855

 Broyden mixing:
  rms(total) = 0.15971E-02    rms(broyden)= 0.15953E-02
  rms(prec ) = 0.16169E-02
  weight for this iteration     100.00

 eigenvalues of (default mixing * dielectric matrix)
  average eigenvalue GAMMA=   1.4231
 14.3604  6.7288  4.1640  2.5760  2.5760  1.9782  1.7993  1.7993  1.8327  1.1837
  1.1837  0.9380  0.9380  1.2503  1.2503  0.7560  0.7560  0.8221  0.8221  0.1606
  0.6625  0.6625  0.5808  0.5808  0.2612  0.5000  0.5000  0.6598  0.6598  0.6061
  0.6061  0.3424  0.6498  0.6498  0.3754  0.5446  0.5446  0.5775  0.5541  0.4498
  0.4498  0.4784

 Free energy of the ion-electron system (eV)
  ---------------------------------------------------
  alpha Z        PSCENC =       248.28095292
  Ewald energy   TEWEN  =     47164.57967162
  -Hartree energ DENC   =    -62291.76399042
  -exchange      EXHF   =         0.00000000
  -V(xc)+E(xc)   XCENC  =       719.38530114
  PAW double counting   =     17613.91791546   -18011.06498299
  entropy T*S    EENTRO =        -0.00930691
  eigenvalues    EBANDS =     -1245.56935417
  atomic energy  EATOM  =     15644.37171969
  Solvation  Ediel_sol  =         0.00000000
  ---------------------------------------------------
  free energy    TOTEN  =      -157.87207366 eV

  energy without entropy =     -157.86276676  energy(sigma->0) =     -157.86742021


--------------------------------------------------------------------------------------------------------




--------------------------------------- Iteration      1(  53)  ---------------------------------------


    POTLOK:  cpu time      0.0700: real time      0.0704
    SETDIJ:  cpu time      0.0065: real time      0.0065
     EDDAV:  cpu time      2.8685: real time      2.8828
       DOS:  cpu time      0.0018: real time      0.0018
    CHARGE:  cpu time      0.1590: real time      0.1597
    MIXING:  cpu time      0.0050: real time      0.0050
    --------------------------------------------
      LOOP:  cpu time      3.1108: real time      3.1262

 eigenvalue-minimisations  :  4136
 total energy-change (2. order) :-0.3119394E-04  (-0.1110565E-05)
 number of electron     184.9999967 magnetization       8.9990906
 augmentation part       59.2110312 magnetization       7.4545930

 Broyden mixing:
  rms(total) = 0.10323E-02    rms(broyden)= 0.10295E-02
  rms(prec ) = 0.10705E-02
  weight for this iteration     100.00

 eigenvalues of (default mixing * dielectric matrix)
  average eigenvalue GAMMA=   1.4345
 14.4555  6.7284  4.6994  2.6824  2.5575  2.5575  1.7822  1.7822  1.4600  1.4600
  1.1841  1.1841  0.9471  0.9471  1.0239  0.7965  0.7965  0.8462  0.8462  0.1571
  0.7777  0.7777  0.2497  0.5676  0.5676  0.6541  0.6541  0.6181  0.6181  0.5662
  0.5662  0.3445  0.5836  0.5836  0.6279  0.6279  0.3967  0.3967  0.5416  0.5416
  0.5484  0.4894  0.4894

 Free energy of the ion-electron system (eV)
  ---------------------------------------------------
  alpha Z        PSCENC =       248.28095292
  Ewald energy   TEWEN  =     47164.57967162
  -Hartree energ DENC   =    -62291.77419605
  -exchange      EXHF   =         0.00000000
  -V(xc)+E(xc)   XCENC  =       719.38480825
  PAW double counting   =     17613.85358710   -18011.00089162
  entropy T*S    EENTRO =        -0.00929835
  eigenvalues    EBANDS =     -1245.55845841
  atomic energy  EATOM  =     15644.37171969
  Solvation  Ediel_sol  =         0.00000000
  ---------------------------------------------------
  free energy    TOTEN  =      -157.87210486 eV

  energy without entropy =     -157.86280650  energy(sigma->0) =     -157.86745568


--------------------------------------------------------------------------------------------------------




--------------------------------------- Iteration      1(  54)  ---------------------------------------


    POTLOK:  cpu time      0.0660: real time      0.0664
    SETDIJ:  cpu time      0.0063: real time      0.0063
     EDDAV:  cpu time      2.2890: real time      2.2990
       DOS:  cpu time      0.0017: real time      0.0017
    CHARGE:  cpu time      0.1617: real time      0.1623
    MIXING:  cpu time      0.0056: real time      0.0057
    --------------------------------------------
      LOOP:  cpu time      2.5303: real time      2.5413

 eigenvalue-minimisations  :  2984
 total energy-change (2. order) :-0.4761810E-04  (-0.2315910E-05)
 number of electron     184.9999967 magnetization       8.9992416
 augmentation part       59.2110024 magnetization       7.4538191

 Broyden mixing:
  rms(total) = 0.12527E-02    rms(broyden)= 0.12523E-02
  rms(prec ) = 0.12614E-02
  weight for this iteration     100.00

 eigenvalues of (default mixing * dielectric matrix)
  average eigenvalue GAMMA=   1.4315
 14.7627  6.7188  4.8250  2.6723  2.5552  2.5552  1.7679  1.7679  1.4783  1.4783
  1.1552  1.1552  0.9340  0.9340  1.0646  1.0646  1.0926  0.8229  0.8229  0.1546
  0.7712  0.7712  0.2786  0.2786  0.6470  0.6470  0.6828  0.6828  0.5868  0.5868
  0.3268  0.4479  0.4479  0.6028  0.6028  0.6429  0.6429  0.4656  0.4656  0.5195
  0.5195  0.5417  0.5417  0.5028

 Free energy of the ion-electron system (eV)
  ---------------------------------------------------
  alpha Z        PSCENC =       248.28095292
  Ewald energy   TEWEN  =     47164.57967162
  -Hartree energ DENC   =    -62291.81528746
  -exchange      EXHF   =         0.00000000
  -V(xc)+E(xc)   XCENC  =       719.38465248
  PAW double counting   =     17613.79321383   -18010.94216356
  entropy T*S    EENTRO =        -0.00930873
  eigenvalues    EBANDS =     -1245.51560326
  atomic energy  EATOM  =     15644.37171969
  Solvation  Ediel_sol  =         0.00000000
  ---------------------------------------------------
  free energy    TOTEN  =      -157.87215247 eV

  energy without entropy =     -157.86284375  energy(sigma->0) =     -157.86749811


--------------------------------------------------------------------------------------------------------




--------------------------------------- Iteration      1(  55)  ---------------------------------------


    POTLOK:  cpu time      0.0657: real time      0.0662
    SETDIJ:  cpu time      0.0062: real time      0.0062
     EDDAV:  cpu time      2.6665: real time      2.6804
       DOS:  cpu time      0.0017: real time      0.0017
    CHARGE:  cpu time      0.1690: real time      0.1698
    MIXING:  cpu time      0.0050: real time      0.0050
    --------------------------------------------
      LOOP:  cpu time      2.9140: real time      2.9292

 eigenvalue-minimisations  :  3576
 total energy-change (2. order) :-0.1912998E-04  (-0.5339004E-06)
 number of electron     184.9999967 magnetization       8.9989886
 augmentation part       59.2109916 magnetization       7.4515077

 Broyden mixing:
  rms(total) = 0.69677E-03    rms(broyden)= 0.69557E-03
  rms(prec ) = 0.70911E-03
  weight for this iteration     100.00

 eigenvalues of (default mixing * dielectric matrix)
  average eigenvalue GAMMA=   1.4236
 15.5056  6.4958  3.7942  1.8369  1.8369  1.7266  1.7266  1.7075  1.3272  1.0651
  1.0651  1.1772  1.1772  0.9635  0.9635  0.7734  0.7734  0.9403  0.7193  0.7193
  0.5685  0.5685  0.3187  0.3187  0.6183  0.6183  0.5179  0.5179  0.4219  0.4219
  0.4086  0.6514  0.6514  0.6747  0.6747  0.5165  0.5165  0.5764  0.5764  0.5138

 Free energy of the ion-electron system (eV)
  ---------------------------------------------------
  alpha Z        PSCENC =       248.28095292
  Ewald energy   TEWEN  =     47164.57967162
  -Hartree energ DENC   =    -62291.83350986
  -exchange      EXHF   =         0.00000000
  -V(xc)+E(xc)   XCENC  =       719.38451472
  PAW double counting   =     17613.78131475   -18010.93009089
  entropy T*S    EENTRO =        -0.00930566
  eigenvalues    EBANDS =     -1245.49743890
  atomic energy  EATOM  =     15644.37171969
  Solvation  Ediel_sol  =         0.00000000
  ---------------------------------------------------
  free energy    TOTEN  =      -157.87217160 eV

  energy without entropy =     -157.86286595  energy(sigma->0) =     -157.86751878


--------------------------------------------------------------------------------------------------------




--------------------------------------- Iteration      1(  56)  ---------------------------------------


    POTLOK:  cpu time      0.0685: real time      0.0687
    SETDIJ:  cpu time      0.0062: real time      0.0065
     EDDAV:  cpu time      2.7566: real time      2.7720
       DOS:  cpu time      0.0017: real time      0.0017
    CHARGE:  cpu time      0.1585: real time      0.1590
    MIXING:  cpu time      0.0046: real time      0.0047
    --------------------------------------------
      LOOP:  cpu time      2.9962: real time      3.0126

 eigenvalue-minimisations  :  3880
 total energy-change (2. order) :-0.2169963E-04  (-0.8882402E-06)
 number of electron     184.9999967 magnetization       8.9993154
 augmentation part       59.2110797 magnetization       7.4492864

 Broyden mixing:
  rms(total) = 0.43975E-03    rms(broyden)= 0.43696E-03
  rms(prec ) = 0.44673E-03
  weight for this iteration     100.00

 eigenvalues of (default mixing * dielectric matrix)
  average eigenvalue GAMMA=   1.4640
 17.3292  6.4966  4.3136  1.8911  1.8911  1.7439  1.7439  1.5928  1.0698  1.0698
  1.2281  1.1617  1.1617  1.0567  0.9726  0.9726  0.8068  0.8068  0.5678  0.5678
  0.7328  0.7328  0.6689  0.6689  0.5295  0.5295  0.3645  0.3645  0.3443  0.3443
  0.7157  0.6568  0.6568  0.4355  0.4355  0.5793  0.5793  0.5018  0.5681  0.5681
  0.6017

 Free energy of the ion-electron system (eV)
  ---------------------------------------------------
  alpha Z        PSCENC =       248.28095292
  Ewald energy   TEWEN  =     47164.57967162
  -Hartree energ DENC   =    -62291.82497433
  -exchange      EXHF   =         0.00000000
  -V(xc)+E(xc)   XCENC  =       719.38384179
  PAW double counting   =     17613.75588013   -18010.90440446
  entropy T*S    EENTRO =        -0.00930876
  eigenvalues    EBANDS =     -1245.50557191
  atomic energy  EATOM  =     15644.37171969
  Solvation  Ediel_sol  =         0.00000000
  ---------------------------------------------------
  free energy    TOTEN  =      -157.87219330 eV

  energy without entropy =     -157.86288455  energy(sigma->0) =     -157.86753893


--------------------------------------------------------------------------------------------------------




--------------------------------------- Iteration      1(  57)  ---------------------------------------


    POTLOK:  cpu time      0.0660: real time      0.0665
    SETDIJ:  cpu time      0.0062: real time      0.0062
     EDDAV:  cpu time      2.7975: real time      2.8112
       DOS:  cpu time      0.0021: real time      0.0021
    CHARGE:  cpu time      0.1596: real time      0.1603
    MIXING:  cpu time      0.0049: real time      0.0049
    --------------------------------------------
      LOOP:  cpu time      3.0364: real time      3.0512

 eigenvalue-minimisations  :  3904
 total energy-change (2. order) :-0.2961400E-04  (-0.9396475E-06)
 number of electron     184.9999967 magnetization       8.9995999
 augmentation part       59.2110931 magnetization       7.4471129

 Broyden mixing:
  rms(total) = 0.33288E-03    rms(broyden)= 0.32920E-03
  rms(prec ) = 0.33845E-03
  weight for this iteration     100.00

 eigenvalues of (default mixing * dielectric matrix)
  average eigenvalue GAMMA=   1.5471
 20.6737  6.4655  4.7632  1.9907  1.7666  1.7666  1.8102  1.6669  1.6669  1.0764
  1.0764  1.1914  1.0912  1.0912  0.8715  0.8715  0.7355  0.7355  0.8609  0.8609
  0.5739  0.5739  0.7265  0.7265  0.8284  0.3244  0.3244  0.5043  0.5043  0.4175
  0.4175  0.5926  0.5926  0.4024  0.6169  0.6169  0.4728  0.4728  0.5846  0.5846
  0.5432  0.5432

 Free energy of the ion-electron system (eV)
  ---------------------------------------------------
  alpha Z        PSCENC =       248.28095292
  Ewald energy   TEWEN  =     47164.57967162
  -Hartree energ DENC   =    -62291.86322168
  -exchange      EXHF   =         0.00000000
  -V(xc)+E(xc)   XCENC  =       719.38359656
  PAW double counting   =     17613.75053634   -18010.89870463
  entropy T*S    EENTRO =        -0.00930486
  eigenvalues    EBANDS =     -1245.46746887
  atomic energy  EATOM  =     15644.37171969
  Solvation  Ediel_sol  =         0.00000000
  ---------------------------------------------------
  free energy    TOTEN  =      -157.87222292 eV

  energy without entropy =     -157.86291806  energy(sigma->0) =     -157.86757049


--------------------------------------------------------------------------------------------------------




--------------------------------------- Iteration      1(  58)  ---------------------------------------


    POTLOK:  cpu time      0.0673: real time      0.0679
    SETDIJ:  cpu time      0.0062: real time      0.0062
     EDDAV:  cpu time      2.7274: real time      2.7426
       DOS:  cpu time      0.0016: real time      0.0016
    CHARGE:  cpu time      0.1610: real time      0.1618
    MIXING:  cpu time      0.0049: real time      0.0049
    --------------------------------------------
      LOOP:  cpu time      2.9684: real time      2.9850

 eigenvalue-minimisations  :  3824
 total energy-change (2. order) :-0.1156372E-04  (-0.8171156E-06)
 number of electron     184.9999967 magnetization       8.9997800
 augmentation part       59.2111133 magnetization       7.4441276

 Broyden mixing:
  rms(total) = 0.15345E-03    rms(broyden)= 0.14079E-03
  rms(prec ) = 0.15674E-03
  weight for this iteration     100.00

 eigenvalues of (default mixing * dielectric matrix)
  average eigenvalue GAMMA=   1.5862
 22.2011  6.4584  5.2125  2.3126  1.8423  1.8423  1.7602  1.7602  1.6716  1.0795
  1.0795  1.1027  1.1027  1.1074  0.9057  0.9057  0.7770  0.7770  0.8908  0.8908
  0.7334  0.7334  0.5918  0.5918  0.8274  0.5237  0.5237  0.3260  0.3260  0.5683
  0.5683  0.4093  0.4093  0.3879  0.4249  0.6260  0.6260  0.6053  0.6053  0.5207
  0.5207  0.5197  0.5594

 Free energy of the ion-electron system (eV)
  ---------------------------------------------------
  alpha Z        PSCENC =       248.28095292
  Ewald energy   TEWEN  =     47164.57967162
  -Hartree energ DENC   =    -62291.89274036
  -exchange      EXHF   =         0.00000000
  -V(xc)+E(xc)   XCENC  =       719.38318734
  PAW double counting   =     17613.75853311   -18010.90627557
  entropy T*S    EENTRO =        -0.00930015
  eigenvalues    EBANDS =     -1245.43798308
  atomic energy  EATOM  =     15644.37171969
  Solvation  Ediel_sol  =         0.00000000
  ---------------------------------------------------
  free energy    TOTEN  =      -157.87223448 eV

  energy without entropy =     -157.86293433  energy(sigma->0) =     -157.86758441


--------------------------------------------------------------------------------------------------------




--------------------------------------- Iteration      1(  59)  ---------------------------------------


    POTLOK:  cpu time      0.0676: real time      0.0681
    SETDIJ:  cpu time      0.0062: real time      0.0062
     EDDAV:  cpu time      2.1045: real time      2.1147
       DOS:  cpu time      0.0017: real time      0.0017
    CHARGE:  cpu time      0.1652: real time      0.1658
    MIXING:  cpu time      0.0053: real time      0.0054
    --------------------------------------------
      LOOP:  cpu time      2.3504: real time      2.3619

 eigenvalue-minimisations  :  2840
 total energy-change (2. order) :-0.7853152E-05  (-0.1136544E-05)
 number of electron     184.9999967 magnetization       8.9998630
 augmentation part       59.2111118 magnetization       7.4439086

 Broyden mixing:
  rms(total) = 0.26748E-03    rms(broyden)= 0.26681E-03
  rms(prec ) = 0.27252E-03
  weight for this iteration     100.00

 eigenvalues of (default mixing * dielectric matrix)
  average eigenvalue GAMMA=   1.5790
 22.3029  6.4557  5.3835  2.5349  1.9076  1.9076  1.7303  1.7303  1.6820  1.0760
  1.0760  1.1416  1.1416  1.0726  0.9155  0.9155  0.9591  0.9591  0.7839  0.7839
  0.7398  0.7398  0.5913  0.5913  0.5381  0.5381  0.8025  0.3784  0.3784  0.3426
  0.3426  0.5733  0.5733  0.6435  0.6435  0.5614  0.5614  0.3882  0.4273  0.4273
  0.4806  0.5657  0.5657  0.6230

 Free energy of the ion-electron system (eV)
  ---------------------------------------------------
  alpha Z        PSCENC =       248.28095292
  Ewald energy   TEWEN  =     47164.57967162
  -Hartree energ DENC   =    -62291.92155638
  -exchange      EXHF   =         0.00000000
  -V(xc)+E(xc)   XCENC  =       719.38324594
  PAW double counting   =     17613.77511299   -18010.92285685
  entropy T*S    EENTRO =        -0.00929886
  eigenvalues    EBANDS =     -1245.40923339
  atomic energy  EATOM  =     15644.37171969
  Solvation  Ediel_sol  =         0.00000000
  ---------------------------------------------------
  free energy    TOTEN  =      -157.87224233 eV

  energy without entropy =     -157.86294347  energy(sigma->0) =     -157.86759290


--------------------------------------------------------------------------------------------------------




--------------------------------------- Iteration      1(  60)  ---------------------------------------


    POTLOK:  cpu time      0.0684: real time      0.0686
    SETDIJ:  cpu time      0.0064: real time      0.0064
     EDDAV:  cpu time      2.1845: real time      2.1967
       DOS:  cpu time      0.0017: real time      0.0017
    CHARGE:  cpu time      0.1639: real time      0.1652
    MIXING:  cpu time      0.0053: real time      0.0054
    --------------------------------------------
      LOOP:  cpu time      2.4302: real time      2.4441

 eigenvalue-minimisations  :  2952
 total energy-change (2. order) :-0.3057768E-05  (-0.4637687E-07)
 number of electron     184.9999967 magnetization       8.9999763
 augmentation part       59.2111076 magnetization       7.4437880

 Broyden mixing:
  rms(total) = 0.19517E-03    rms(broyden)= 0.19500E-03
  rms(prec ) = 0.20081E-03
  weight for this iteration     100.00

 eigenvalues of (default mixing * dielectric matrix)
  average eigenvalue GAMMA=   1.6110
 21.9201  5.8890  5.4743  2.4340  1.9835  1.6267  1.6267  1.3893  1.3893  1.1553
  1.1553  1.0013  1.0013  1.0131  0.6263  0.6263  0.7829  0.7829  0.8496  0.8496
  0.7791  0.7791  0.4356  0.4356  0.5514  0.5514  0.3723  0.3723  0.5485  0.5485
  0.4222  0.4710  0.4710  0.6488  0.6343  0.6343  0.5351  0.5351  0.5688  0.5688

 Free energy of the ion-electron system (eV)
  ---------------------------------------------------
  alpha Z        PSCENC =       248.28095292
  Ewald energy   TEWEN  =     47164.57967162
  -Hartree energ DENC   =    -62291.93411893
  -exchange      EXHF   =         0.00000000
  -V(xc)+E(xc)   XCENC  =       719.38324541
  PAW double counting   =     17613.77521692   -18010.92303206
  entropy T*S    EENTRO =        -0.00929823
  eigenvalues    EBANDS =     -1245.39660273
  atomic energy  EATOM  =     15644.37171969
  Solvation  Ediel_sol  =         0.00000000
  ---------------------------------------------------
  free energy    TOTEN  =      -157.87224539 eV

  energy without entropy =     -157.86294717  energy(sigma->0) =     -157.86759628


--------------------------------------------------------------------------------------------------------




--------------------------------------- Iteration      1(  61)  ---------------------------------------


    POTLOK:  cpu time      0.0690: real time      0.0697
    SETDIJ:  cpu time      0.0064: real time      0.0066
     EDDAV:  cpu time      2.5905: real time      2.6082
       DOS:  cpu time      0.0018: real time      0.0018
    CHARGE:  cpu time      0.1659: real time      0.1664
    MIXING:  cpu time      0.0048: real time      0.0049
    --------------------------------------------
      LOOP:  cpu time      2.8384: real time      2.8576

 eigenvalue-minimisations  :  3648
 total energy-change (2. order) :-0.2813955E-05  (-0.4537443E-07)
 number of electron     184.9999967 magnetization       9.0000448
 augmentation part       59.2110914 magnetization       7.4432298

 Broyden mixing:
  rms(total) = 0.92899E-04    rms(broyden)= 0.92103E-04
  rms(prec ) = 0.99741E-04
  weight for this iteration     100.00

 eigenvalues of (default mixing * dielectric matrix)
  average eigenvalue GAMMA=   1.6149
 22.1953  5.7849  5.7849  2.2018  2.2018  1.5969  1.5969  1.5162  1.5162  1.1217
  1.1217  1.1491  1.1491  1.0999  0.6278  0.6278  0.7965  0.7965  0.8334  0.8334
  0.7399  0.7399  0.8202  0.4486  0.4486  0.5432  0.5432  0.3916  0.3916  0.5288
  0.5288  0.4082  0.6757  0.5951  0.5951  0.4981  0.4981  0.5817  0.5817  0.5870
  0.5154

 Free energy of the ion-electron system (eV)
  ---------------------------------------------------
  alpha Z        PSCENC =       248.28095292
  Ewald energy   TEWEN  =     47164.57967162
  -Hartree energ DENC   =    -62291.94988447
  -exchange      EXHF   =         0.00000000
  -V(xc)+E(xc)   XCENC  =       719.38316620
  PAW double counting   =     17613.76801086   -18010.91588517
  entropy T*S    EENTRO =        -0.00929676
  eigenvalues    EBANDS =     -1245.38070310
  atomic energy  EATOM  =     15644.37171969
  Solvation  Ediel_sol  =         0.00000000
  ---------------------------------------------------
  free energy    TOTEN  =      -157.87224821 eV

  energy without entropy =     -157.86295145  energy(sigma->0) =     -157.86759983


--------------------------------------------------------------------------------------------------------




--------------------------------------- Iteration      1(  62)  ---------------------------------------


    POTLOK:  cpu time      0.0681: real time      0.0683
    SETDIJ:  cpu time      0.0063: real time      0.0063
     EDDAV:  cpu time      2.5277: real time      2.5406
       DOS:  cpu time      0.0016: real time      0.0016
    CHARGE:  cpu time      0.1618: real time      0.1625
    MIXING:  cpu time      0.0050: real time      0.0050
    --------------------------------------------
      LOOP:  cpu time      2.7706: real time      2.7844

 eigenvalue-minimisations  :  3376
 total energy-change (2. order) :-0.1773536E-05  (-0.5014677E-07)
 number of electron     184.9999967 magnetization       9.0000907
 augmentation part       59.2110821 magnetization       7.4430282

 Broyden mixing:
  rms(total) = 0.85460E-04    rms(broyden)= 0.85188E-04
  rms(prec ) = 0.88789E-04
  weight for this iteration     100.00

 eigenvalues of (default mixing * dielectric matrix)
  average eigenvalue GAMMA=   1.5962
 21.9091  5.7369  5.7369  2.6365  2.0988  1.7995  1.7995  1.4079  1.4079  1.1321
  1.1321  1.3626  1.0148  1.0148  0.6312  0.6312  0.7518  0.7518  0.7939  0.7939
  0.8272  0.8272  0.8126  0.4489  0.4489  0.5526  0.5526  0.7408  0.3830  0.3830
  0.5639  0.5639  0.4020  0.4728  0.4728  0.6283  0.6283  0.5835  0.5835  0.5331
  0.5331  0.5573

 Free energy of the ion-electron system (eV)
  ---------------------------------------------------
  alpha Z        PSCENC =       248.28095292
  Ewald energy   TEWEN  =     47164.57967162
  -Hartree energ DENC   =    -62291.96550171
  -exchange      EXHF   =         0.00000000
  -V(xc)+E(xc)   XCENC  =       719.38315604
  PAW double counting   =     17613.75871698   -18010.90674184
  entropy T*S    EENTRO =        -0.00929717
  eigenvalues    EBANDS =     -1245.36492651
  atomic energy  EATOM  =     15644.37171969
  Solvation  Ediel_sol  =         0.00000000
  ---------------------------------------------------
  free energy    TOTEN  =      -157.87224998 eV

  energy without entropy =     -157.86295281  energy(sigma->0) =     -157.86760139


--------------------------------------------------------------------------------------------------------




--------------------------------------- Iteration      1(  63)  ---------------------------------------


    POTLOK:  cpu time      0.0673: real time      0.0676
    SETDIJ:  cpu time      0.0061: real time      0.0062
     EDDAV:  cpu time      2.4640: real time      2.4759
       DOS:  cpu time      0.0017: real time      0.0017
    CHARGE:  cpu time      0.1600: real time      0.1608
    MIXING:  cpu time      0.0052: real time      0.0053
    --------------------------------------------
      LOOP:  cpu time      2.7043: real time      2.7175

 eigenvalue-minimisations  :  3360
 total energy-change (2. order) :-0.1269622E-05  (-0.1603405E-07)
 number of electron     184.9999967 magnetization       9.0000861
 augmentation part       59.2110778 magnetization       7.4425757

 Broyden mixing:
  rms(total) = 0.43325E-04    rms(broyden)= 0.42455E-04
  rms(prec ) = 0.45787E-04
  weight for this iteration     100.00

 eigenvalues of (default mixing * dielectric matrix)
  average eigenvalue GAMMA=   1.6238
 23.1036  5.7619  5.7619  2.9983  2.0529  1.8288  1.7185  1.7185  1.1918  1.1918
  1.2950  1.2950  1.0416  1.0416  0.9636  0.7837  0.7837  0.8864  0.8864  0.6154
  0.6154  0.7500  0.7500  0.7625  0.7625  0.4433  0.4433  0.5198  0.5198  0.3834
  0.3834  0.3969  0.5467  0.5467  0.4961  0.4961  0.6443  0.5871  0.5871  0.5957
  0.5957  0.5394  0.5394

 Free energy of the ion-electron system (eV)
  ---------------------------------------------------
  alpha Z        PSCENC =       248.28095292
  Ewald energy   TEWEN  =     47164.57967162
  -Hartree energ DENC   =    -62291.97554038
  -exchange      EXHF   =         0.00000000
  -V(xc)+E(xc)   XCENC  =       719.38310655
  PAW double counting   =     17613.75108696   -18010.89922590
  entropy T*S    EENTRO =        -0.00929680
  eigenvalues    EBANDS =     -1245.35472590
  atomic energy  EATOM  =     15644.37171969
  Solvation  Ediel_sol  =         0.00000000
  ---------------------------------------------------
  free energy    TOTEN  =      -157.87225125 eV

  energy without entropy =     -157.86295444  energy(sigma->0) =     -157.86760285


--------------------------------------------------------------------------------------------------------




--------------------------------------- Iteration      1(  64)  ---------------------------------------


    POTLOK:  cpu time      0.0666: real time      0.0668
    SETDIJ:  cpu time      0.0061: real time      0.0061
     EDDAV:  cpu time      2.3514: real time      2.3619
       DOS:  cpu time      0.0016: real time      0.0017
    CHARGE:  cpu time      0.1622: real time      0.1628
    MIXING:  cpu time      0.0052: real time      0.0052
    --------------------------------------------
      LOOP:  cpu time      2.5932: real time      2.6046

 eigenvalue-minimisations  :  3104
 total energy-change (2. order) :-0.9060386E-06  (-0.2936032E-07)
 number of electron     184.9999967 magnetization       9.0000688
 augmentation part       59.2110799 magnetization       7.4424014

 Broyden mixing:
  rms(total) = 0.33205E-04    rms(broyden)= 0.32923E-04
  rms(prec ) = 0.34802E-04
  weight for this iteration     100.00

 eigenvalues of (default mixing * dielectric matrix)
  average eigenvalue GAMMA=   1.6322
 24.0146  5.7895  5.7895  3.0591  2.2380  1.8149  1.7315  1.7315  1.2659  1.2659
  1.1549  1.1549  1.2164  1.2164  0.9875  0.9215  0.9215  0.7783  0.7783  0.4651
  0.4651  0.6326  0.6326  0.7574  0.7574  0.7693  0.7693  0.3383  0.3383  0.5534
  0.5534  0.5085  0.5085  0.4532  0.4532  0.3980  0.5971  0.5971  0.6288  0.6288
  0.5538  0.5538  0.5157  0.5585

 Free energy of the ion-electron system (eV)
  ---------------------------------------------------
  alpha Z        PSCENC =       248.28095292
  Ewald energy   TEWEN  =     47164.57967162
  -Hartree energ DENC   =    -62291.98529806
  -exchange      EXHF   =         0.00000000
  -V(xc)+E(xc)   XCENC  =       719.38309702
  PAW double counting   =     17613.74997334   -18010.89826739
  entropy T*S    EENTRO =        -0.00929677
  eigenvalues    EBANDS =     -1245.34480453
  atomic energy  EATOM  =     15644.37171969
  Solvation  Ediel_sol  =         0.00000000
  ---------------------------------------------------
  free energy    TOTEN  =      -157.87225216 eV

  energy without entropy =     -157.86295538  energy(sigma->0) =     -157.86760377


--------------------------------------------------------------------------------------------------------




--------------------------------------- Iteration      1(  65)  ---------------------------------------


    POTLOK:  cpu time      0.0677: real time      0.0680
    SETDIJ:  cpu time      0.0064: real time      0.0065
     EDDAV:  cpu time      2.0070: real time      2.0204
       DOS:  cpu time      0.0016: real time      0.0016
    CHARGE:  cpu time      0.1629: real time      0.1635
    MIXING:  cpu time      0.0050: real time      0.0050
    --------------------------------------------
      LOOP:  cpu time      2.2506: real time      2.2650

 eigenvalue-minimisations  :  2528
 total energy-change (2. order) :-0.2729466E-06  (-0.6813074E-08)
 number of electron     184.9999967 magnetization       9.0000429
 augmentation part       59.2110777 magnetization       7.4423515

 Broyden mixing:
  rms(total) = 0.30885E-04    rms(broyden)= 0.30844E-04
  rms(prec ) = 0.31924E-04
  weight for this iteration     100.00

 eigenvalues of (default mixing * dielectric matrix)
  average eigenvalue GAMMA=   1.6474
 25.5676  5.3211  2.9422  2.9422  2.1423  2.1423  1.6137  1.6137  1.0608  1.0608
  0.8745  0.8745  1.0329  1.0329  0.8297  0.8297  0.9222  0.9222  0.3510  0.3510
  0.5459  0.5459  0.7469  0.7469  0.7306  0.7306  0.5726  0.5726  0.7129  0.3631
  0.3983  0.4491  0.4491  0.5077  0.5077  0.4851  0.6503  0.5753  0.5753  0.6046

 Free energy of the ion-electron system (eV)
  ---------------------------------------------------
  alpha Z        PSCENC =       248.28095292
  Ewald energy   TEWEN  =     47164.57967162
  -Hartree energ DENC   =    -62291.99011860
  -exchange      EXHF   =         0.00000000
  -V(xc)+E(xc)   XCENC  =       719.38310186
  PAW double counting   =     17613.74977727   -18010.89817829
  entropy T*S    EENTRO =        -0.00929667
  eigenvalues    EBANDS =     -1245.33988222
  atomic energy  EATOM  =     15644.37171969
  Solvation  Ediel_sol  =         0.00000000
  ---------------------------------------------------
  free energy    TOTEN  =      -157.87225243 eV

  energy without entropy =     -157.86295576  energy(sigma->0) =     -157.86760409


--------------------------------------------------------------------------------------------------------




--------------------------------------- Iteration      1(  66)  ---------------------------------------


    POTLOK:  cpu time      0.0663: real time      0.0666
    SETDIJ:  cpu time      0.0060: real time      0.0060
     EDDAV:  cpu time      1.7124: real time      1.7204
       DOS:  cpu time      0.0018: real time      0.0018
    CHARGE:  cpu time      0.1579: real time      0.1585
    MIXING:  cpu time      0.0049: real time      0.0049
    --------------------------------------------
      LOOP:  cpu time      1.9492: real time      1.9581

 eigenvalue-minimisations  :  1936
 total energy-change (2. order) :-0.6082446E-06  (-0.6232822E-09)
 number of electron     184.9999967 magnetization       9.0000307
 augmentation part       59.2110799 magnetization       7.4422450

 Broyden mixing:
  rms(total) = 0.14643E-04    rms(broyden)= 0.14534E-04
  rms(prec ) = 0.15658E-04
  weight for this iteration     100.00

 eigenvalues of (default mixing * dielectric matrix)
  average eigenvalue GAMMA=   1.6785
 26.9461  5.4675  3.0462  3.0462  2.2418  2.2418  1.7139  1.7139  0.9163  0.9163
  1.1515  1.0407  1.0407  0.9842  0.9842  0.7487  0.7487  0.9078  0.5475  0.5475
  0.7490  0.7490  0.7851  0.7851  0.4222  0.4222  0.3243  0.6897  0.6897  0.5672
  0.5672  0.3812  0.3812  0.5018  0.5018  0.4936  0.5349  0.5349  0.6292  0.5800
  0.5800

 Free energy of the ion-electron system (eV)
  ---------------------------------------------------
  alpha Z        PSCENC =       248.28095292
  Ewald energy   TEWEN  =     47164.57967162
  -Hartree energ DENC   =    -62291.99257646
  -exchange      EXHF   =         0.00000000
  -V(xc)+E(xc)   XCENC  =       719.38308795
  PAW double counting   =     17613.74954657   -18010.89789195
  entropy T*S    EENTRO =        -0.00929633
  eigenvalues    EBANDS =     -1245.33746705
  atomic energy  EATOM  =     15644.37171969
  Solvation  Ediel_sol  =         0.00000000
  ---------------------------------------------------
  free energy    TOTEN  =      -157.87225304 eV

  energy without entropy =     -157.86295670  energy(sigma->0) =     -157.86760487


--------------------------------------------------------------------------------------------------------




--------------------------------------- Iteration      1(  67)  ---------------------------------------


    POTLOK:  cpu time      0.0674: real time      0.0678
    SETDIJ:  cpu time      0.0063: real time      0.0064
     EDDAV:  cpu time      1.7281: real time      1.7383
       DOS:  cpu time      0.0018: real time      0.0018
    CHARGE:  cpu time      0.1599: real time      0.1605
    MIXING:  cpu time      0.0045: real time      0.0045
    --------------------------------------------
      LOOP:  cpu time      1.9681: real time      1.9793

 eigenvalue-minimisations  :  2056
 total energy-change (2. order) :-0.1213702E-06  (-0.1008288E-08)
 number of electron     184.9999967 magnetization       9.0000314
 augmentation part       59.2110805 magnetization       7.4421741

 Broyden mixing:
  rms(total) = 0.11695E-04    rms(broyden)= 0.11602E-04
  rms(prec ) = 0.12214E-04
  weight for this iteration     100.00

 eigenvalues of (default mixing * dielectric matrix)
  average eigenvalue GAMMA=   1.7140
 28.6927  5.8036  3.0457  3.0457  2.2777  2.2777  1.6427  1.6427  1.4651  0.8031
  0.8031  0.9030  0.9030  1.0726  1.0726  0.9490  0.9490  0.5618  0.5618  0.8747
  0.8747  0.4191  0.4191  0.7117  0.7117  0.7311  0.7311  0.7594  0.5670  0.5670
  0.3594  0.3851  0.3851  0.5088  0.5088  0.6631  0.4957  0.4957  0.5884  0.5884
  0.5845  0.5845

 Free energy of the ion-electron system (eV)
  ---------------------------------------------------
  alpha Z        PSCENC =       248.28095292
  Ewald energy   TEWEN  =     47164.57967162
  -Hartree energ DENC   =    -62291.99586396
  -exchange      EXHF   =         0.00000000
  -V(xc)+E(xc)   XCENC  =       719.38308109
  PAW double counting   =     17613.74814474   -18010.89647957
  entropy T*S    EENTRO =        -0.00929618
  eigenvalues    EBANDS =     -1245.33418350
  atomic energy  EATOM  =     15644.37171969
  Solvation  Ediel_sol  =         0.00000000
  ---------------------------------------------------
  free energy    TOTEN  =      -157.87225316 eV

  energy without entropy =     -157.86295698  energy(sigma->0) =     -157.86760507


--------------------------------------------------------------------------------------------------------




--------------------------------------- Iteration      1(  68)  ---------------------------------------


    POTLOK:  cpu time      0.0663: real time      0.0668
    SETDIJ:  cpu time      0.0062: real time      0.0063
     EDDAV:  cpu time      1.6652: real time      1.6731
       DOS:  cpu time      0.0017: real time      0.0017
    CHARGE:  cpu time      0.1610: real time      0.1617
    MIXING:  cpu time      0.0048: real time      0.0048
    --------------------------------------------
      LOOP:  cpu time      1.9051: real time      1.9145

 eigenvalue-minimisations  :  2040
 total energy-change (2. order) :-0.6939808E-07  (-0.7576443E-09)
 number of electron     184.9999967 magnetization       9.0000240
 augmentation part       59.2110817 magnetization       7.4420706

 Broyden mixing:
  rms(total) = 0.14182E-04    rms(broyden)= 0.14072E-04
  rms(prec ) = 0.14376E-04
  weight for this iteration     100.00

 eigenvalues of (default mixing * dielectric matrix)
  average eigenvalue GAMMA=   1.7147
 29.3686  5.8856  3.0521  3.0521  2.2906  2.2906  1.7006  1.7006  1.6457  0.8722
  0.8722  0.9882  0.9882  1.0544  1.0122  1.0122  0.7799  0.7799  0.5600  0.5600
  0.7502  0.7502  0.8402  0.8151  0.4131  0.4131  0.7304  0.7304  0.5704  0.5704
  0.3814  0.3814  0.3792  0.5004  0.5004  0.6504  0.6504  0.5307  0.5307  0.4937
  0.4937  0.5957  0.5957

 Free energy of the ion-electron system (eV)
  ---------------------------------------------------
  alpha Z        PSCENC =       248.28095292
  Ewald energy   TEWEN  =     47164.57967162
  -Hartree energ DENC   =    -62291.99764544
  -exchange      EXHF   =         0.00000000
  -V(xc)+E(xc)   XCENC  =       719.38307090
  PAW double counting   =     17613.74806700   -18010.89637251
  entropy T*S    EENTRO =        -0.00929602
  eigenvalues    EBANDS =     -1245.33242138
  atomic energy  EATOM  =     15644.37171969
  Solvation  Ediel_sol  =         0.00000000
  ---------------------------------------------------
  free energy    TOTEN  =      -157.87225323 eV

  energy without entropy =     -157.86295721  energy(sigma->0) =     -157.86760522


--------------------------------------------------------------------------------------------------------




--------------------------------------- Iteration      1(  69)  ---------------------------------------


    POTLOK:  cpu time      0.0673: real time      0.0676
    SETDIJ:  cpu time      0.0063: real time      0.0063
     EDDAV:  cpu time      1.7664: real time      1.7755
       DOS:  cpu time      0.0019: real time      0.0019
    CHARGE:  cpu time      0.1665: real time      0.1671
    MIXING:  cpu time      0.0052: real time      0.0052
    --------------------------------------------
      LOOP:  cpu time      2.0135: real time      2.0235

 eigenvalue-minimisations  :  2168
 total energy-change (2. order) :-0.2047636E-06  (-0.1720548E-08)
 number of electron     184.9999967 magnetization       9.0000208
 augmentation part       59.2110813 magnetization       7.4421266

 Broyden mixing:
  rms(total) = 0.16102E-04    rms(broyden)= 0.16098E-04
  rms(prec ) = 0.16234E-04
  weight for this iteration     100.00

 eigenvalues of (default mixing * dielectric matrix)
  average eigenvalue GAMMA=   1.6826
 28.4509  5.8742  3.1858  3.1858  2.5267  2.2409  1.6554  1.6554  1.6078  1.1644
  1.1644  0.9468  0.9468  1.1449  0.9293  0.9293  0.6652  0.6652  0.8866  0.8866
  0.8741  0.3699  0.3699  0.5594  0.5594  0.7635  0.7635  0.5592  0.5592  0.3597
  0.3597  0.6725  0.6725  0.5100  0.5100  0.4545  0.4545  0.6378  0.5364  0.5364
  0.5866  0.5866  0.5016  0.5635

 Free energy of the ion-electron system (eV)
  ---------------------------------------------------
  alpha Z        PSCENC =       248.28095292
  Ewald energy   TEWEN  =     47164.57967162
  -Hartree energ DENC   =    -62291.99939745
  -exchange      EXHF   =         0.00000000
  -V(xc)+E(xc)   XCENC  =       719.38307720
  PAW double counting   =     17613.74811126   -18010.89639909
  entropy T*S    EENTRO =        -0.00929611
  eigenvalues    EBANDS =     -1245.33069348
  atomic energy  EATOM  =     15644.37171969
  Solvation  Ediel_sol  =         0.00000000
  ---------------------------------------------------
  free energy    TOTEN  =      -157.87225343 eV

  energy without entropy =     -157.86295733  energy(sigma->0) =     -157.86760538


--------------------------------------------------------------------------------------------------------




--------------------------------------- Iteration      1(  70)  ---------------------------------------


    POTLOK:  cpu time      0.0747: real time      0.0751
    SETDIJ:  cpu time      0.0064: real time      0.0064
     EDDAV:  cpu time      1.6128: real time      1.6249
       DOS:  cpu time      0.0015: real time      0.0015
    CHARGE:  cpu time      0.1638: real time      0.1645
    MIXING:  cpu time      0.0054: real time      0.0054
    --------------------------------------------
      LOOP:  cpu time      1.8645: real time      1.8778

 eigenvalue-minimisations  :  1848
 total energy-change (2. order) :-0.7105336E-07  (-0.1090056E-09)
 number of electron     184.9999967 magnetization       9.0000173
 augmentation part       59.2110819 magnetization       7.4420893

 Broyden mixing:
  rms(total) = 0.64228E-05    rms(broyden)= 0.64075E-05
  rms(prec ) = 0.65888E-05
  weight for this iteration     100.00

 eigenvalues of (default mixing * dielectric matrix)
  average eigenvalue GAMMA=   1.5771
 23.6841  4.6329  3.1645  3.1645  2.5844  1.6082  1.6082  0.8019  0.8019  1.0675
  1.0675  1.0616  1.0616  1.0265  0.7745  0.7745  0.9684  0.8810  0.8810  0.7981
  0.7981  0.5013  0.5013  0.4399  0.4399  0.6329  0.6329  0.3696  0.6351  0.6351
  0.5243  0.5243  0.5715  0.5715  0.4173  0.4408  0.4408  0.5806  0.5062  0.5062

 Free energy of the ion-electron system (eV)
  ---------------------------------------------------
  alpha Z        PSCENC =       248.28095292
  Ewald energy   TEWEN  =     47164.57967162
  -Hartree energ DENC   =    -62292.00034937
  -exchange      EXHF   =         0.00000000
  -V(xc)+E(xc)   XCENC  =       719.38307200
  PAW double counting   =     17613.74810044   -18010.89637349
  entropy T*S    EENTRO =        -0.00929611
  eigenvalues    EBANDS =     -1245.32975121
  atomic energy  EATOM  =     15644.37171969
  Solvation  Ediel_sol  =         0.00000000
  ---------------------------------------------------
  free energy    TOTEN  =      -157.87225350 eV

  energy without entropy =     -157.86295739  energy(sigma->0) =     -157.86760545


--------------------------------------------------------------------------------------------------------




--------------------------------------- Iteration      1(  71)  ---------------------------------------


    POTLOK:  cpu time      0.0694: real time      0.0696
    SETDIJ:  cpu time      0.0064: real time      0.0065
     EDDAV:  cpu time      1.6347: real time      1.6431
       DOS:  cpu time      0.0018: real time      0.0018
    CHARGE:  cpu time      0.1696: real time      0.1703
    MIXING:  cpu time      0.0050: real time      0.0051
    --------------------------------------------
      LOOP:  cpu time      1.8870: real time      1.8966

 eigenvalue-minimisations  :  1768
 total energy-change (2. order) :-0.1364715E-06  (-0.2961310E-09)
 number of electron     184.9999967 magnetization       9.0000183
 augmentation part       59.2110836 magnetization       7.4420810

 Broyden mixing:
  rms(total) = 0.69961E-05    rms(broyden)= 0.69885E-05
  rms(prec ) = 0.70734E-05
  weight for this iteration     100.00

 eigenvalues of (default mixing * dielectric matrix)
  average eigenvalue GAMMA=   1.6125
 25.8268  4.6857  3.2188  3.2188  2.4778  1.5629  1.5629  1.5159  1.1381  1.1381
  1.0083  1.0083  0.7158  0.7158  0.7623  0.7623  0.8896  0.8896  0.8849  0.8849
  0.7332  0.7332  0.4998  0.4998  0.4276  0.4276  0.7314  0.3513  0.3513  0.5655
  0.5655  0.6281  0.6281  0.4033  0.5278  0.5278  0.6138  0.4627  0.5040  0.5040
  0.5587

 Free energy of the ion-electron system (eV)
  ---------------------------------------------------
  alpha Z        PSCENC =       248.28095292
  Ewald energy   TEWEN  =     47164.57967162
  -Hartree energ DENC   =    -62292.00168722
  -exchange      EXHF   =         0.00000000
  -V(xc)+E(xc)   XCENC  =       719.38307198
  PAW double counting   =     17613.74827112   -18010.89652527
  entropy T*S    EENTRO =        -0.00929611
  eigenvalues    EBANDS =     -1245.32843237
  atomic energy  EATOM  =     15644.37171969
  Solvation  Ediel_sol  =         0.00000000
  ---------------------------------------------------
  free energy    TOTEN  =      -157.87225364 eV

  energy without entropy =     -157.86295753  energy(sigma->0) =     -157.86760559


--------------------------------------------------------------------------------------------------------




--------------------------------------- Iteration      1(  72)  ---------------------------------------


    POTLOK:  cpu time      0.0686: real time      0.0688
    SETDIJ:  cpu time      0.0062: real time      0.0062
     EDDAV:  cpu time      1.6162: real time      1.6240
       DOS:  cpu time      0.0017: real time      0.0017
    CHARGE:  cpu time      0.1661: real time      0.1667
    MIXING:  cpu time      0.0049: real time      0.0049
    --------------------------------------------
      LOOP:  cpu time      1.8637: real time      1.8723

 eigenvalue-minimisations  :  1856
 total energy-change (2. order) :-0.3884270E-07  (-0.4277953E-10)
 number of electron     184.9999967 magnetization       9.0000154
 augmentation part       59.2110833 magnetization       7.4420516

 Broyden mixing:
  rms(total) = 0.79014E-05    rms(broyden)= 0.78876E-05
  rms(prec ) = 0.79469E-05
  weight for this iteration     100.00

 eigenvalues of (default mixing * dielectric matrix)
  average eigenvalue GAMMA=   1.6052
 25.5235  4.6515  3.2845  3.2845  2.5247  1.7007  1.6818  1.6818  0.8590  0.8590
  1.1345  1.1345  1.0727  1.0727  0.9012  0.9012  0.7609  0.7609  0.8992  0.8992
  0.4942  0.4942  0.4713  0.4713  0.3673  0.3673  0.3568  0.7421  0.7421  0.6777
  0.6777  0.5667  0.5667  0.6737  0.4369  0.4369  0.5126  0.5126  0.5479  0.5479
  0.6041  0.5616

 Free energy of the ion-electron system (eV)
  ---------------------------------------------------
  alpha Z        PSCENC =       248.28095292
  Ewald energy   TEWEN  =     47164.57967162
  -Hartree energ DENC   =    -62292.00200229
  -exchange      EXHF   =         0.00000000
  -V(xc)+E(xc)   XCENC  =       719.38307079
  PAW double counting   =     17613.74848976   -18010.89674585
  entropy T*S    EENTRO =        -0.00929606
  eigenvalues    EBANDS =     -1245.32811426
  atomic energy  EATOM  =     15644.37171969
  Solvation  Ediel_sol  =         0.00000000
  ---------------------------------------------------
  free energy    TOTEN  =      -157.87225368 eV

  energy without entropy =     -157.86295762  energy(sigma->0) =     -157.86760565


--------------------------------------------------------------------------------------------------------




--------------------------------------- Iteration      1(  73)  ---------------------------------------


    POTLOK:  cpu time      0.0686: real time      0.0690
    SETDIJ:  cpu time      0.0064: real time      0.0064
     EDDAV:  cpu time      1.5835: real time      1.5926
       DOS:  cpu time      0.0018: real time      0.0018
    CHARGE:  cpu time      0.1618: real time      0.1622
    MIXING:  cpu time      0.0048: real time      0.0048
    --------------------------------------------
      LOOP:  cpu time      1.8269: real time      1.8368

 eigenvalue-minimisations  :  1752
 total energy-change (2. order) :-0.1390436E-06  (-0.1073427E-09)
 number of electron     184.9999967 magnetization       9.0000117
 augmentation part       59.2110824 magnetization       7.4420663

 Broyden mixing:
  rms(total) = 0.46964E-05    rms(broyden)= 0.46944E-05
  rms(prec ) = 0.47328E-05
  weight for this iteration     100.00

 eigenvalues of (default mixing * dielectric matrix)
  average eigenvalue GAMMA=   1.6230
 26.6748  4.7608  3.1750  3.1750  2.4737  2.4737  1.5599  1.5599  0.8796  0.8796
  1.1811  1.1811  1.0756  1.0756  0.7805  0.7805  0.9447  0.9447  0.8444  0.8444
  0.7787  0.7787  0.4748  0.4748  0.6664  0.6664  0.5101  0.5101  0.3529  0.3529
  0.3571  0.5912  0.5912  0.5981  0.5981  0.4971  0.4971  0.4452  0.4911  0.4911
  0.5541  0.5986  0.6467

 Free energy of the ion-electron system (eV)
  ---------------------------------------------------
  alpha Z        PSCENC =       248.28095292
  Ewald energy   TEWEN  =     47164.57967162
  -Hartree energ DENC   =    -62292.00258016
  -exchange      EXHF   =         0.00000000
  -V(xc)+E(xc)   XCENC  =       719.38307622
  PAW double counting   =     17613.74859478   -18010.89686108
  entropy T*S    EENTRO =        -0.00929610
  eigenvalues    EBANDS =     -1245.32753171
  atomic energy  EATOM  =     15644.37171969
  Solvation  Ediel_sol  =         0.00000000
  ---------------------------------------------------
  free energy    TOTEN  =      -157.87225382 eV

  energy without entropy =     -157.86295772  energy(sigma->0) =     -157.86760577


--------------------------------------------------------------------------------------------------------




--------------------------------------- Iteration      1(  74)  ---------------------------------------


    POTLOK:  cpu time      0.0660: real time      0.0662
    SETDIJ:  cpu time      0.0061: real time      0.0062
     EDDAV:  cpu time      1.6228: real time      1.6300
       DOS:  cpu time      0.0016: real time      0.0016
    CHARGE:  cpu time      0.1573: real time      0.1577
    MIXING:  cpu time      0.0050: real time      0.0050
    --------------------------------------------
      LOOP:  cpu time      1.8587: real time      1.8666

 eigenvalue-minimisations  :  1808
 total energy-change (2. order) :-0.8215648E-07  (-0.4939541E-10)
 number of electron     184.9999967 magnetization       9.0000076
 augmentation part       59.2110823 magnetization       7.4420460

 Broyden mixing:
  rms(total) = 0.21971E-05    rms(broyden)= 0.21869E-05
  rms(prec ) = 0.22279E-05
  weight for this iteration     100.00

 eigenvalues of (default mixing * dielectric matrix)
  average eigenvalue GAMMA=   1.6559
 27.5029  4.9943  3.5740  2.8649  2.8649  2.8794  1.5542  1.5542  1.3732  1.3732
  0.8522  0.8522  1.0472  1.0472  0.8391  0.8391  0.9576  0.9146  0.9146  0.7594
  0.7594  0.7632  0.7632  0.4814  0.4814  0.5053  0.5053  0.3518  0.3518  0.3556
  0.7008  0.7008  0.5864  0.5864  0.6341  0.6341  0.4947  0.4947  0.4539  0.4892
  0.4892  0.5683  0.5683  0.5809

 Free energy of the ion-electron system (eV)
  ---------------------------------------------------
  alpha Z        PSCENC =       248.28095292
  Ewald energy   TEWEN  =     47164.57967162
  -Hartree energ DENC   =    -62292.00307370
  -exchange      EXHF   =         0.00000000
  -V(xc)+E(xc)   XCENC  =       719.38307478
  PAW double counting   =     17613.74870834   -18010.89697096
  entropy T*S    EENTRO =        -0.00929610
  eigenvalues    EBANDS =     -1245.32704049
  atomic energy  EATOM  =     15644.37171969
  Solvation  Ediel_sol  =         0.00000000
  ---------------------------------------------------
  free energy    TOTEN  =      -157.87225390 eV

  energy without entropy =     -157.86295780  energy(sigma->0) =     -157.86760585


--------------------------------------------------------------------------------------------------------




--------------------------------------- Iteration      1(  75)  ---------------------------------------


    POTLOK:  cpu time      0.0658: real time      0.0661
    SETDIJ:  cpu time      0.0060: real time      0.0060
     EDDAV:  cpu time      1.6403: real time      1.6522
       DOS:  cpu time      0.0017: real time      0.0017
    CHARGE:  cpu time      0.1702: real time      0.1708
    MIXING:  cpu time      0.0053: real time      0.0054
    --------------------------------------------
      LOOP:  cpu time      1.8892: real time      1.9022

 eigenvalue-minimisations  :  1776
 total energy-change (2. order) :-0.4025424E-07  (-0.6245742E-10)
 number of electron     184.9999967 magnetization       9.0000058
 augmentation part       59.2110824 magnetization       7.4420516

 Broyden mixing:
  rms(total) = 0.42153E-05    rms(broyden)= 0.42151E-05
  rms(prec ) = 0.42284E-05
  weight for this iteration     100.00

 eigenvalues of (default mixing * dielectric matrix)
  average eigenvalue GAMMA=   1.6937
 27.9847  5.0630  3.3488  2.9453  1.9580  1.9580  1.7007  1.4320  0.8064  0.8064
  1.1380  1.1380  1.0407  1.0407  0.8507  0.8507  0.9818  0.2854  0.2854  0.7231
  0.7231  0.8432  0.4533  0.4533  0.3715  0.3715  0.6237  0.6237  0.6577  0.6577
  0.6852  0.6541  0.6541  0.4876  0.4876  0.5617  0.5617  0.4703  0.5501  0.5198

 Free energy of the ion-electron system (eV)
  ---------------------------------------------------
  alpha Z        PSCENC =       248.28095292
  Ewald energy   TEWEN  =     47164.57967162
  -Hartree energ DENC   =    -62292.00334898
  -exchange      EXHF   =         0.00000000
  -V(xc)+E(xc)   XCENC  =       719.38307611
  PAW double counting   =     17613.74863975   -18010.89690068
  entropy T*S    EENTRO =        -0.00929611
  eigenvalues    EBANDS =     -1245.32676826
  atomic energy  EATOM  =     15644.37171969
  Solvation  Ediel_sol  =         0.00000000
  ---------------------------------------------------
  free energy    TOTEN  =      -157.87225394 eV

  energy without entropy =     -157.86295783  energy(sigma->0) =     -157.86760588


--------------------------------------------------------------------------------------------------------




--------------------------------------- Iteration      1(  76)  ---------------------------------------


    POTLOK:  cpu time      0.0710: real time      0.0713
    SETDIJ:  cpu time      0.0066: real time      0.0066
     EDDAV:  cpu time      1.6352: real time      1.6428
       DOS:  cpu time      0.0019: real time      0.0019
    --------------------------------------------
      LOOP:  cpu time      1.7146: real time      1.7225

 eigenvalue-minimisations  :  1864
 total energy-change (2. order) :-0.6988557E-08  (-0.2843085E-10)
 number of electron     184.9999967 magnetization       9.0000058
 augmentation part       59.2110824 magnetization       7.4420516

 Free energy of the ion-electron system (eV)
  ---------------------------------------------------
  alpha Z        PSCENC =       248.28095292
  Ewald energy   TEWEN  =     47164.57967162
  -Hartree energ DENC   =    -62292.00338297
  -exchange      EXHF   =         0.00000000
  -V(xc)+E(xc)   XCENC  =       719.38307629
  PAW double counting   =     17613.74854800   -18010.89680939
  entropy T*S    EENTRO =        -0.00929610
  eigenvalues    EBANDS =     -1245.32673401
  atomic energy  EATOM  =     15644.37171969
  Solvation  Ediel_sol  =         0.00000000
  ---------------------------------------------------
  free energy    TOTEN  =      -157.87225395 eV

  energy without entropy =     -157.86295785  energy(sigma->0) =     -157.86760590


--------------------------------------------------------------------------------------------------------




 average (electrostatic) potential at core
  the test charge radii are     0.9791  0.7215  0.5201  0.9748
  (the norm of the test charge is              1.0000)
       1 -91.1025       2 -91.1025       3 -91.1002       4 -91.1025       5 -92.2406
       6 -90.8952       7 -92.2406       8 -92.2406       9 -75.9701      10 -75.9616
      11 -75.9701      12 -75.9701      13 -75.0462      14 -75.0462      15 -75.0461
      16 -75.0977      17 -75.1544      18 -75.1544      19 -75.1544      20 -76.0077
      21 -75.0679      22 -75.0679      23 -76.0257      24 -75.0679      25 -38.8645
      26 -38.8655      27 -38.8645      28 -38.8645      29 -38.0314      30 -38.0314
      31 -38.0314      32 -38.3603      33 -28.8594
 
 
 
 E-fermi :  -0.3931     XC(G=0):  -5.6336     alpha+bet : -5.0267

 Fermi energy:        -0.3931268444

 spin component 1

 k-point     1 :       0.0000    0.0000    0.0000
  band No.  band energies     occupation 
      1     -20.0819      1.00000
      2     -19.5173      1.00000
      3     -19.0967      1.00000
      4     -19.0616      1.00000
      5     -19.0616      1.00000
      6     -18.9857      1.00000
      7     -18.9016      1.00000
      8     -18.9016      1.00000
      9     -18.8623      1.00000
     10     -18.2711      1.00000
     11     -17.8405      1.00000
     12     -17.7121      1.00000
     13     -17.7121      1.00000
     14     -17.6102      1.00000
     15     -17.6102      1.00000
     16     -17.4099      1.00000
     17      -9.0140      1.00000
     18      -8.2159      1.00000
     19      -8.1751      1.00000
     20      -8.1751      1.00000
     21      -7.6499      1.00000
     22      -7.3772      1.00000
     23      -7.3772      1.00000
     24      -7.2835      1.00000
     25      -7.2835      1.00000
     26      -7.1733      1.00000
     27      -7.0375      1.00000
     28      -7.0375      1.00000
     29      -6.9475      1.00000
     30      -6.9234      1.00000
     31      -6.9234      1.00000
     32      -6.9216      1.00000
     33      -6.7974      1.00000
     34      -6.7399      1.00000
     35      -6.7399      1.00000
     36      -6.5835      1.00000
     37      -6.5835      1.00000
     38      -5.9034      1.00000
     39      -5.9034      1.00000
     40      -5.7171      1.00000
     41      -5.6894      1.00000
     42      -5.3417      1.00000
     43      -5.3417      1.00000
     44      -5.0373      1.00000
     45      -5.0373      1.00000
     46      -4.8971      1.00000
     47      -4.8950      1.00000
     48      -4.8950      1.00000
     49      -4.6181      1.00000
     50      -4.6181      1.00000
     51      -4.5856      1.00000
     52      -4.4970      1.00000
     53      -4.4753      1.00000
     54      -4.4753      1.00000
     55      -4.4728      1.00000
     56      -4.3668      1.00000
     57      -4.3668      1.00000
     58      -4.1822      1.00000
     59      -4.1822      1.00000
     60      -4.1663      1.00000
     61      -4.1644      1.00000
     62      -4.1644      1.00000
     63      -4.1053      1.00000
     64      -4.0729      1.00000
     65      -4.0729      1.00000
     66      -3.9106      1.00000
     67      -3.7225      1.00000
     68      -3.4920      1.00000
     69      -3.4920      1.00000
     70      -3.3540      1.00000
     71      -3.2571      1.00000
     72      -3.2571      1.00000
     73      -3.2179      1.00000
     74      -3.2179      1.00000
     75      -3.1791      1.00000
     76      -3.1380      1.00000
     77      -3.1380      1.00000
     78      -3.0137      1.00000
     79      -2.9428      1.00000
     80      -2.7275      1.00000
     81      -2.6497      1.00000
     82      -2.6497      1.00000
     83      -2.3157      1.00000
     84      -2.0012      1.00000
     85      -1.9225      1.00000
     86      -1.9225      1.00000
     87      -1.8718      1.00000
     88      -1.8718      1.00000
     89      -1.8332      1.00000
     90      -1.4833      1.00000
     91      -1.4833      1.00000
     92      -0.4635      0.97669
     93      -0.4635      0.97669
     94      -0.3417      0.07306
     95      -0.3378      0.05881
     96      -0.3378      0.05881
     97      -0.1887      0.00000
     98      -0.1887      0.00000
     99       0.1587      0.00000
    100       0.5889      0.00000
    101       0.7252      0.00000
    102       0.7252      0.00000
    103       1.0321      0.00000
    104       1.0321      0.00000
    105       1.3141      0.00000
    106       3.0445      0.00000
    107       3.4664      0.00000
    108       3.7892      0.00000
    109       3.7901      0.00000
    110       3.7901      0.00000
    111       4.8864      0.00000
    112       5.7784      0.00000
    113       6.4703      0.00000
    114       6.4704      0.00000
    115       6.4704      0.00000
    116       6.9379      0.00000
    117       7.5233      0.00000
    118       7.9703      0.00000
    119       8.1739      0.00000
    120       8.1739      0.00000
    121       8.5204      0.00000
    122       8.6661      0.00000
    123       8.6811      0.00000
    124       8.6811      0.00000
    125       8.9309      0.00000
    126       8.9309      0.00000
    127       9.0016      0.00000
    128       9.3140      0.00000

 k-point     2 :       0.2000    0.0000    0.0000
  band No.  band energies     occupation 
      1     -19.9958      1.00000
      2     -19.4354      1.00000
      3     -19.1830      1.00000
      4     -19.0857      1.00000
      5     -19.0668      1.00000
      6     -18.9855      1.00000
      7     -18.9047      1.00000
      8     -18.8988      1.00000
      9     -18.8521      1.00000
     10     -18.3718      1.00000
     11     -17.8924      1.00000
     12     -17.7579      1.00000
     13     -17.7105      1.00000
     14     -17.5673      1.00000
     15     -17.5651      1.00000
     16     -17.4105      1.00000
     17      -8.9000      1.00000
     18      -8.2113      1.00000
     19      -8.1225      1.00000
     20      -8.0954      1.00000
     21      -7.6018      1.00000
     22      -7.5484      1.00000
     23      -7.4619      1.00000
     24      -7.4093      1.00000
     25      -7.2400      1.00000
     26      -7.2313      1.00000
     27      -6.9909      1.00000
     28      -6.9834      1.00000
     29      -6.9363      1.00000
     30      -6.9303      1.00000
     31      -6.9221      1.00000
     32      -6.7183      1.00000
     33      -6.6817      1.00000
     34      -6.6147      1.00000
     35      -6.5953      1.00000
     36      -6.5090      1.00000
     37      -6.4926      1.00000
     38      -5.9524      1.00000
     39      -5.8580      1.00000
     40      -5.7874      1.00000
     41      -5.4828      1.00000
     42      -5.4479      1.00000
     43      -5.3803      1.00000
     44      -5.3355      1.00000
     45      -5.1900      1.00000
     46      -5.1284      1.00000
     47      -4.9870      1.00000
     48      -4.7619      1.00000
     49      -4.7405      1.00000
     50      -4.6594      1.00000
     51      -4.5947      1.00000
     52      -4.5906      1.00000
     53      -4.5558      1.00000
     54      -4.5348      1.00000
     55      -4.4303      1.00000
     56      -4.3990      1.00000
     57      -4.3803      1.00000
     58      -4.2839      1.00000
     59      -4.2332      1.00000
     60      -4.2136      1.00000
     61      -4.1641      1.00000
     62      -4.0791      1.00000
     63      -4.0279      1.00000
     64      -3.9419      1.00000
     65      -3.8848      1.00000
     66      -3.8578      1.00000
     67      -3.7958      1.00000
     68      -3.6004      1.00000
     69      -3.5877      1.00000
     70      -3.5285      1.00000
     71      -3.4356      1.00000
     72      -3.3469      1.00000
     73      -3.2811      1.00000
     74      -3.1973      1.00000
     75      -3.1562      1.00000
     76      -2.9374      1.00000
     77      -2.8504      1.00000
     78      -2.8275      1.00000
     79      -2.6414      1.00000
     80      -2.5816      1.00000
     81      -2.4914      1.00000
     82      -2.4297      1.00000
     83      -2.3854      1.00000
     84      -2.2131      1.00000
     85      -1.9112      1.00000
     86      -1.8915      1.00000
     87      -1.8280      1.00000
     88      -1.8240      1.00000
     89      -1.7160      1.00000
     90      -1.5678      1.00000
     91      -1.5143      1.00000
     92      -0.6492      1.00000
     93      -0.6050      1.00000
     94      -0.5550      1.00000
     95      -0.4921      0.99745
     96      -0.4596      0.96988
     97      -0.3577      0.15790
     98      -0.2491      0.00002
     99       0.1213      0.00000
    100       0.6099      0.00000
    101       0.6757      0.00000
    102       0.7649      0.00000
    103       0.8218      0.00000
    104       0.9947      0.00000
    105       1.2044      0.00000
    106       3.1707      0.00000
    107       3.2705      0.00000
    108       3.6989      0.00000
    109       3.7037      0.00000
    110       3.7040      0.00000
    111       5.1106      0.00000
    112       6.1513      0.00000
    113       6.4886      0.00000
    114       6.7269      0.00000
    115       6.7808      0.00000
    116       6.7812      0.00000
    117       7.2014      0.00000
    118       7.5881      0.00000
    119       7.7226      0.00000
    120       7.8628      0.00000
    121       8.0219      0.00000
    122       8.1833      0.00000
    123       8.2410      0.00000
    124       8.5320      0.00000
    125       8.6298      0.00000
    126       9.1030      0.00000
    127       9.2669      0.00000
    128       9.3952      0.00000

 k-point     3 :       0.4000    0.0000    0.0000
  band No.  band energies     occupation 
      1     -19.7633      1.00000
      2     -19.4562      1.00000
      3     -19.2372      1.00000
      4     -19.0929      1.00000
      5     -19.0748      1.00000
      6     -19.0020      1.00000
      7     -18.9135      1.00000
      8     -18.8945      1.00000
      9     -18.8130      1.00000
     10     -18.5900      1.00000
     11     -17.9791      1.00000
     12     -17.8038      1.00000
     13     -17.6867      1.00000
     14     -17.5202      1.00000
     15     -17.5173      1.00000
     16     -17.4131      1.00000
     17      -8.5971      1.00000
     18      -8.2888      1.00000
     19      -7.9675      1.00000
     20      -7.9099      1.00000
     21      -7.8595      1.00000
     22      -7.8337      1.00000
     23      -7.6092      1.00000
     24      -7.5912      1.00000
     25      -7.1083      1.00000
     26      -7.0351      1.00000
     27      -7.0063      1.00000
     28      -6.9899      1.00000
     29      -6.9875      1.00000
     30      -6.8203      1.00000
     31      -6.7356      1.00000
     32      -6.5979      1.00000
     33      -6.3761      1.00000
     34      -6.3130      1.00000
     35      -6.2533      1.00000
     36      -6.2359      1.00000
     37      -6.1287      1.00000
     38      -6.0006      1.00000
     39      -5.9430      1.00000
     40      -5.8273      1.00000
     41      -5.7749      1.00000
     42      -5.6981      1.00000
     43      -5.3892      1.00000
     44      -5.2771      1.00000
     45      -5.2238      1.00000
     46      -5.2147      1.00000
     47      -5.1499      1.00000
     48      -5.0628      1.00000
     49      -5.0150      1.00000
     50      -4.9253      1.00000
     51      -4.8293      1.00000
     52      -4.7444      1.00000
     53      -4.7130      1.00000
     54      -4.6396      1.00000
     55      -4.6030      1.00000
     56      -4.6029      1.00000
     57      -4.3853      1.00000
     58      -4.3702      1.00000
     59      -4.3167      1.00000
     60      -4.2017      1.00000
     61      -4.1487      1.00000
     62      -4.1214      1.00000
     63      -4.0570      1.00000
     64      -3.9315      1.00000
     65      -3.9060      1.00000
     66      -3.7790      1.00000
     67      -3.7473      1.00000
     68      -3.7151      1.00000
     69      -3.4267      1.00000
     70      -3.3925      1.00000
     71      -3.2859      1.00000
     72      -3.2304      1.00000
     73      -3.1270      1.00000
     74      -3.0334      1.00000
     75      -2.9915      1.00000
     76      -2.8527      1.00000
     77      -2.6950      1.00000
     78      -2.6811      1.00000
     79      -2.6072      1.00000
     80      -2.4531      1.00000
     81      -2.3633      1.00000
     82      -2.1653      1.00000
     83      -2.0654      1.00000
     84      -2.0353      1.00000
     85      -2.0227      1.00000
     86      -1.9576      1.00000
     87      -1.6582      1.00000
     88      -1.6231      1.00000
     89      -1.5635      1.00000
     90      -1.5510      1.00000
     91      -1.4755      1.00000
     92      -1.1890      1.00000
     93      -1.1236      1.00000
     94      -1.1177      1.00000
     95      -0.9212      1.00000
     96      -0.5123      0.99962
     97      -0.3926      0.49427
     98      -0.3461      0.09188
     99       0.0215      0.00000
    100       0.2285      0.00000
    101       0.4797      0.00000
    102       0.5516      0.00000
    103       0.9224      0.00000
    104       1.0742      0.00000
    105       1.3891      0.00000
    106       2.2006      0.00000
    107       3.5869      0.00000
    108       3.5870      0.00000
    109       3.9229      0.00000
    110       4.3293      0.00000
    111       5.0809      0.00000
    112       5.4391      0.00000
    113       5.8291      0.00000
    114       6.8002      0.00000
    115       7.0551      0.00000
    116       7.0760      0.00000
    117       7.0842      0.00000
    118       7.4259      0.00000
    119       7.5540      0.00000
    120       7.8222      0.00000
    121       8.0845      0.00000
    122       8.1975      0.00000
    123       8.2290      0.00000
    124       8.6157      0.00000
    125       8.8593      0.00000
    126       9.1640      0.00000
    127       9.2011      0.00000
    128       9.3646      0.00000

 k-point     4 :       0.2000    0.2000    0.0000
  band No.  band energies     occupation 
      1     -19.8361      1.00000
      2     -19.3299      1.00000
      3     -19.2627      1.00000
      4     -19.2338      1.00000
      5     -19.0087      1.00000
      6     -18.9904      1.00000
      7     -18.9113      1.00000
      8     -18.8906      1.00000
      9     -18.8269      1.00000
     10     -18.5209      1.00000
     11     -18.0154      1.00000
     12     -17.7457      1.00000
     13     -17.7020      1.00000
     14     -17.5454      1.00000
     15     -17.5105      1.00000
     16     -17.4129      1.00000
     17      -8.6877      1.00000
     18      -8.1698      1.00000
     19      -8.1388      1.00000
     20      -7.9031      1.00000
     21      -7.7940      1.00000
     22      -7.7401      1.00000
     23      -7.6979      1.00000
     24      -7.4619      1.00000
     25      -7.1476      1.00000
     26      -7.1010      1.00000
     27      -6.9963      1.00000
     28      -6.9897      1.00000
     29      -6.8683      1.00000
     30      -6.7991      1.00000
     31      -6.7711      1.00000
     32      -6.7417      1.00000
     33      -6.5700      1.00000
     34      -6.4533      1.00000
     35      -6.3695      1.00000
     36      -6.1488      1.00000
     37      -6.1286      1.00000
     38      -6.0045      1.00000
     39      -5.9340      1.00000
     40      -5.8111      1.00000
     41      -5.6856      1.00000
     42      -5.6434      1.00000
     43      -5.4446      1.00000
     44      -5.3227      1.00000
     45      -5.2417      1.00000
     46      -5.1143      1.00000
     47      -5.0359      1.00000
     48      -4.9647      1.00000
     49      -4.9059      1.00000
     50      -4.8151      1.00000
     51      -4.7888      1.00000
     52      -4.7563      1.00000
     53      -4.7430      1.00000
     54      -4.7077      1.00000
     55      -4.5848      1.00000
     56      -4.5524      1.00000
     57      -4.4400      1.00000
     58      -4.2692      1.00000
     59      -4.2624      1.00000
     60      -4.2050      1.00000
     61      -4.1431      1.00000
     62      -4.1295      1.00000
     63      -4.0746      1.00000
     64      -4.0229      1.00000
     65      -4.0163      1.00000
     66      -3.7768      1.00000
     67      -3.6373      1.00000
     68      -3.5342      1.00000
     69      -3.4688      1.00000
     70      -3.3663      1.00000
     71      -3.3322      1.00000
     72      -3.3256      1.00000
     73      -3.1715      1.00000
     74      -2.9897      1.00000
     75      -2.9140      1.00000
     76      -2.8819      1.00000
     77      -2.7526      1.00000
     78      -2.7226      1.00000
     79      -2.6621      1.00000
     80      -2.5828      1.00000
     81      -2.4546      1.00000
     82      -2.4414      1.00000
     83      -2.1035      1.00000
     84      -2.0130      1.00000
     85      -2.0059      1.00000
     86      -1.8575      1.00000
     87      -1.7741      1.00000
     88      -1.7141      1.00000
     89      -1.5980      1.00000
     90      -1.5612      1.00000
     91      -1.4457      1.00000
     92      -1.1039      1.00000
     93      -0.8902      1.00000
     94      -0.7852      1.00000
     95      -0.6490      1.00000
     96      -0.6137      1.00000
     97      -0.5182      0.99980
     98      -0.4458      0.93184
     99       0.0787      0.00000
    100       0.3836      0.00000
    101       0.5083      0.00000
    102       0.6201      0.00000
    103       0.8968      0.00000
    104       1.0295      0.00000
    105       1.2171      0.00000
    106       2.8001      0.00000
    107       2.8006      0.00000
    108       3.7117      0.00000
    109       4.1231      0.00000
    110       4.1336      0.00000
    111       5.4949      0.00000
    112       5.8935      0.00000
    113       5.9896      0.00000
    114       6.1938      0.00000
    115       6.4899      0.00000
    116       6.7913      0.00000
    117       7.1224      0.00000
    118       7.4831      0.00000
    119       7.6302      0.00000
    120       7.6470      0.00000
    121       8.4277      0.00000
    122       8.5533      0.00000
    123       8.6560      0.00000
    124       8.8816      0.00000
    125       8.9972      0.00000
    126       9.0678      0.00000
    127       9.1660      0.00000
    128       9.2965      0.00000

 k-point     5 :       0.4000    0.2000    0.0000
  band No.  band energies     occupation 
      1     -19.5878      1.00000
      2     -19.5422      1.00000
      3     -19.3075      1.00000
      4     -19.1429      1.00000
      5     -19.0227      1.00000
      6     -18.9803      1.00000
      7     -18.9175      1.00000
      8     -18.8812      1.00000
      9     -18.7699      1.00000
     10     -18.6701      1.00000
     11     -18.0972      1.00000
     12     -17.7488      1.00000
     13     -17.6828      1.00000
     14     -17.5287      1.00000
     15     -17.4839      1.00000
     16     -17.4158      1.00000
     17      -8.3721      1.00000
     18      -8.3091      1.00000
     19      -8.0336      1.00000
     20      -7.9511      1.00000
     21      -7.9180      1.00000
     22      -7.9079      1.00000
     23      -7.7305      1.00000
     24      -7.5453      1.00000
     25      -7.0564      1.00000
     26      -7.0367      1.00000
     27      -7.0308      1.00000
     28      -6.9351      1.00000
     29      -6.8571      1.00000
     30      -6.8281      1.00000
     31      -6.6544      1.00000
     32      -6.4649      1.00000
     33      -6.3807      1.00000
     34      -6.3057      1.00000
     35      -6.2452      1.00000
     36      -6.0753      1.00000
     37      -6.0309      1.00000
     38      -5.9653      1.00000
     39      -5.9334      1.00000
     40      -5.7441      1.00000
     41      -5.7091      1.00000
     42      -5.4877      1.00000
     43      -5.4712      1.00000
     44      -5.4598      1.00000
     45      -5.3146      1.00000
     46      -5.2994      1.00000
     47      -5.2411      1.00000
     48      -5.1696      1.00000
     49      -5.0587      1.00000
     50      -5.0034      1.00000
     51      -4.9274      1.00000
     52      -4.8824      1.00000
     53      -4.8760      1.00000
     54      -4.7374      1.00000
     55      -4.6374      1.00000
     56      -4.5356      1.00000
     57      -4.4625      1.00000
     58      -4.4372      1.00000
     59      -4.3210      1.00000
     60      -4.2026      1.00000
     61      -4.1521      1.00000
     62      -4.1432      1.00000
     63      -4.1102      1.00000
     64      -4.0939      1.00000
     65      -3.9124      1.00000
     66      -3.7117      1.00000
     67      -3.5991      1.00000
     68      -3.4456      1.00000
     69      -3.4008      1.00000
     70      -3.3594      1.00000
     71      -3.2260      1.00000
     72      -3.1464      1.00000
     73      -3.0228      1.00000
     74      -3.0106      1.00000
     75      -2.9600      1.00000
     76      -2.8720      1.00000
     77      -2.7748      1.00000
     78      -2.5631      1.00000
     79      -2.5342      1.00000
     80      -2.4174      1.00000
     81      -2.4049      1.00000
     82      -2.3203      1.00000
     83      -2.2204      1.00000
     84      -2.1753      1.00000
     85      -1.9296      1.00000
     86      -1.6563      1.00000
     87      -1.5981      1.00000
     88      -1.5618      1.00000
     89      -1.5333      1.00000
     90      -1.4634      1.00000
     91      -1.2974      1.00000
     92      -1.2659      1.00000
     93      -1.2441      1.00000
     94      -1.1087      1.00000
     95      -0.9243      1.00000
     96      -0.6733      1.00000
     97      -0.6267      1.00000
     98      -0.5656      1.00000
     99       0.0935      0.00000
    100       0.1568      0.00000
    101       0.4306      0.00000
    102       0.5416      0.00000
    103       0.8204      0.00000
    104       0.9021      0.00000
    105       1.9001      0.00000
    106       1.9006      0.00000
    107       2.6762      0.00000
    108       4.2469      0.00000
    109       4.4081      0.00000
    110       4.6985      0.00000
    111       4.8825      0.00000
    112       5.2399      0.00000
    113       5.7575      0.00000
    114       6.1039      0.00000
    115       6.4295      0.00000
    116       6.5197      0.00000
    117       7.4470      0.00000
    118       7.6928      0.00000
    119       7.7177      0.00000
    120       7.8415      0.00000
    121       8.3108      0.00000
    122       8.3529      0.00000
    123       8.6490      0.00000
    124       9.0122      0.00000
    125       9.0159      0.00000
    126       9.0938      0.00000
    127       9.3734      0.00000
    128       9.5379      0.00000
 Fermi energy:        -0.3931268444

 spin component 2

 k-point     1 :       0.0000    0.0000    0.0000
  band No.  band energies     occupation 
      1     -20.0161      1.00000
      2     -19.5530      1.00000
      3     -18.9478      1.00000
      4     -18.8618      1.00000
      5     -18.8618      1.00000
      6     -18.8159      1.00000
      7     -18.7579      1.00000
      8     -18.6925      1.00000
      9     -18.6925      1.00000
     10     -18.3416      1.00000
     11     -17.8444      1.00000
     12     -17.6164      1.00000
     13     -17.6164      1.00000
     14     -17.5827      1.00000
     15     -17.5827      1.00000
     16     -17.4390      1.00000
     17      -8.8578      1.00000
     18      -7.7517      1.00000
     19      -7.6338      1.00000
     20      -7.6338      1.00000
     21      -7.4791      1.00000
     22      -7.2949      1.00000
     23      -7.2949      1.00000
     24      -7.0971      1.00000
     25      -6.9190      1.00000
     26      -6.9190      1.00000
     27      -6.8611      1.00000
     28      -5.8437      1.00000
     29      -5.8437      1.00000
     30      -5.6393      1.00000
     31      -5.5486      1.00000
     32      -5.4738      1.00000
     33      -5.4738      1.00000
     34      -5.3898      1.00000
     35      -5.2421      1.00000
     36      -5.2421      1.00000
     37      -4.9588      1.00000
     38      -4.9588      1.00000
     39      -4.9064      1.00000
     40      -4.9064      1.00000
     41      -4.7973      1.00000
     42      -4.5303      1.00000
     43      -4.5303      1.00000
     44      -4.3874      1.00000
     45      -4.2113      1.00000
     46      -4.2113      1.00000
     47      -4.1365      1.00000
     48      -4.0384      1.00000
     49      -4.0384      1.00000
     50      -3.8382      1.00000
     51      -3.6654      1.00000
     52      -3.6654      1.00000
     53      -3.6554      1.00000
     54      -3.6193      1.00000
     55      -3.6193      1.00000
     56      -3.2728      1.00000
     57      -3.2728      1.00000
     58      -3.2433      1.00000
     59      -3.2067      1.00000
     60      -3.2067      1.00000
     61      -3.0770      1.00000
     62      -3.0373      1.00000
     63      -3.0373      1.00000
     64      -3.0347      1.00000
     65      -2.9559      1.00000
     66      -2.9517      1.00000
     67      -2.6896      1.00000
     68      -2.6885      1.00000
     69      -2.6885      1.00000
     70      -2.4541      1.00000
     71      -2.4541      1.00000
     72      -2.4420      1.00000
     73      -2.4344      1.00000
     74      -2.4344      1.00000
     75      -2.4266      1.00000
     76      -2.4105      1.00000
     77      -2.3471      1.00000
     78      -2.3471      1.00000
     79      -2.2341      1.00000
     80      -2.2341      1.00000
     81      -2.0110      1.00000
     82      -1.7870      1.00000
     83      -1.7870      1.00000
     84      -1.7606      1.00000
     85      -1.7025      1.00000
     86      -1.7025      1.00000
     87      -1.4679      1.00000
     88      -1.4679      1.00000
     89       0.4816      0.00000
     90       0.6876      0.00000
     91       0.9551      0.00000
     92       0.9551      0.00000
     93       1.3635      0.00000
     94       1.3635      0.00000
     95       1.6047      0.00000
     96       3.0822      0.00000
     97       3.1830      0.00000
     98       3.1830      0.00000
     99       3.1913      0.00000
    100       3.5273      0.00000
    101       3.9400      0.00000
    102       3.9400      0.00000
    103       3.9783      0.00000
    104       3.9783      0.00000
    105       3.9957      0.00000
    106       4.0081      0.00000
    107       4.0081      0.00000
    108       4.3440      0.00000
    109       4.3467      0.00000
    110       4.3467      0.00000
    111       4.9355      0.00000
    112       5.8454      0.00000
    113       6.5455      0.00000
    114       6.5457      0.00000
    115       6.5457      0.00000
    116       6.9833      0.00000
    117       7.6145      0.00000
    118       8.0519      0.00000
    119       8.1923      0.00000
    120       8.1924      0.00000
    121       8.5851      0.00000
    122       8.7532      0.00000
    123       8.7771      0.00000
    124       8.7771      0.00000
    125       8.9729      0.00000
    126       8.9729      0.00000
    127       9.0624      0.00000
    128       9.3754      0.00000

 k-point     2 :       0.2000    0.0000    0.0000
  band No.  band energies     occupation 
      1     -19.9301      1.00000
      2     -19.4677      1.00000
      3     -19.0581      1.00000
      4     -18.9318      1.00000
      5     -18.8876      1.00000
      6     -18.7888      1.00000
      7     -18.7567      1.00000
      8     -18.6705      1.00000
      9     -18.6702      1.00000
     10     -18.4078      1.00000
     11     -17.8924      1.00000
     12     -17.7142      1.00000
     13     -17.6888      1.00000
     14     -17.4971      1.00000
     15     -17.4830      1.00000
     16     -17.4261      1.00000
     17      -8.7445      1.00000
     18      -7.7373      1.00000
     19      -7.6169      1.00000
     20      -7.5617      1.00000
     21      -7.3700      1.00000
     22      -7.2154      1.00000
     23      -7.2100      1.00000
     24      -7.0593      1.00000
     25      -6.8679      1.00000
     26      -6.8370      1.00000
     27      -6.7593      1.00000
     28      -5.9783      1.00000
     29      -5.7696      1.00000
     30      -5.7196      1.00000
     31      -5.6054      1.00000
     32      -5.5207      1.00000
     33      -5.4552      1.00000
     34      -5.4065      1.00000
     35      -5.3627      1.00000
     36      -5.2383      1.00000
     37      -5.1972      1.00000
     38      -5.0356      1.00000
     39      -4.9996      1.00000
     40      -4.8140      1.00000
     41      -4.5641      1.00000
     42      -4.4693      1.00000
     43      -4.4505      1.00000
     44      -4.4103      1.00000
     45      -4.2567      1.00000
     46      -4.2323      1.00000
     47      -4.1109      1.00000
     48      -4.0710      1.00000
     49      -4.0085      1.00000
     50      -3.8142      1.00000
     51      -3.8090      1.00000
     52      -3.7327      1.00000
     53      -3.7041      1.00000
     54      -3.6653      1.00000
     55      -3.6618      1.00000
     56      -3.4036      1.00000
     57      -3.3936      1.00000
     58      -3.3537      1.00000
     59      -3.3214      1.00000
     60      -3.2256      1.00000
     61      -3.1806      1.00000
     62      -3.0797      1.00000
     63      -3.0513      1.00000
     64      -3.0100      1.00000
     65      -3.0085      1.00000
     66      -2.9486      1.00000
     67      -2.7587      1.00000
     68      -2.6580      1.00000
     69      -2.5572      1.00000
     70      -2.5289      1.00000
     71      -2.5068      1.00000
     72      -2.5062      1.00000
     73      -2.4546      1.00000
     74      -2.3943      1.00000
     75      -2.3479      1.00000
     76      -2.2505      1.00000
     77      -2.2301      1.00000
     78      -2.2001      1.00000
     79      -2.1886      1.00000
     80      -2.1362      1.00000
     81      -2.0535      1.00000
     82      -1.9230      1.00000
     83      -1.7700      1.00000
     84      -1.7504      1.00000
     85      -1.6563      1.00000
     86      -1.5761      1.00000
     87      -1.4756      1.00000
     88      -1.4430      1.00000
     89       0.4447      0.00000
     90       0.8756      0.00000
     91       0.8833      0.00000
     92       0.9368      0.00000
     93       1.1107      0.00000
     94       1.3118      0.00000
     95       1.5007      0.00000
     96       2.8020      0.00000
     97       3.1282      0.00000
     98       3.1322      0.00000
     99       3.2998      0.00000
    100       3.6964      0.00000
    101       3.8240      0.00000
    102       3.8526      0.00000
    103       3.8541      0.00000
    104       3.9054      0.00000
    105       3.9350      0.00000
    106       3.9722      0.00000
    107       3.9976      0.00000
    108       4.0231      0.00000
    109       4.3414      0.00000
    110       4.3435      0.00000
    111       5.1646      0.00000
    112       6.2292      0.00000
    113       6.5549      0.00000
    114       6.7809      0.00000
    115       6.8665      0.00000
    116       6.8665      0.00000
    117       7.2638      0.00000
    118       7.6468      0.00000
    119       7.7421      0.00000
    120       7.9150      0.00000
    121       8.1286      0.00000
    122       8.2644      0.00000
    123       8.3277      0.00000
    124       8.5905      0.00000
    125       8.7369      0.00000
    126       9.1804      0.00000
    127       9.3137      0.00000
    128       9.4533      0.00000

 k-point     3 :       0.4000    0.0000    0.0000
  band No.  band energies     occupation 
      1     -19.6955      1.00000
      2     -19.3785      1.00000
      3     -19.2352      1.00000
      4     -18.9868      1.00000
      5     -18.9205      1.00000
      6     -18.8489      1.00000
      7     -18.7070      1.00000
      8     -18.6649      1.00000
      9     -18.6430      1.00000
     10     -18.5416      1.00000
     11     -17.9813      1.00000
     12     -17.7824      1.00000
     13     -17.6904      1.00000
     14     -17.4600      1.00000
     15     -17.4116      1.00000
     16     -17.3999      1.00000
     17      -8.4352      1.00000
     18      -8.0227      1.00000
     19      -7.5256      1.00000
     20      -7.4551      1.00000
     21      -7.1560      1.00000
     22      -7.1079      1.00000
     23      -7.0402      1.00000
     24      -6.8578      1.00000
     25      -6.7529      1.00000
     26      -6.5213      1.00000
     27      -6.5027      1.00000
     28      -6.2385      1.00000
     29      -6.0354      1.00000
     30      -5.9287      1.00000
     31      -5.7101      1.00000
     32      -5.6152      1.00000
     33      -5.5747      1.00000
     34      -5.3317      1.00000
     35      -5.2186      1.00000
     36      -5.1757      1.00000
     37      -5.1109      1.00000
     38      -4.9939      1.00000
     39      -4.8827      1.00000
     40      -4.8267      1.00000
     41      -4.7144      1.00000
     42      -4.6050      1.00000
     43      -4.5727      1.00000
     44      -4.4466      1.00000
     45      -4.4335      1.00000
     46      -4.2428      1.00000
     47      -4.2238      1.00000
     48      -4.1725      1.00000
     49      -4.0627      1.00000
     50      -3.9676      1.00000
     51      -3.9249      1.00000
     52      -3.8990      1.00000
     53      -3.8852      1.00000
     54      -3.7613      1.00000
     55      -3.6575      1.00000
     56      -3.4484      1.00000
     57      -3.3354      1.00000
     58      -3.3207      1.00000
     59      -3.2609      1.00000
     60      -3.1867      1.00000
     61      -3.1573      1.00000
     62      -3.0937      1.00000
     63      -3.0674      1.00000
     64      -3.0490      1.00000
     65      -3.0049      1.00000
     66      -2.9012      1.00000
     67      -2.8751      1.00000
     68      -2.7941      1.00000
     69      -2.7739      1.00000
     70      -2.5946      1.00000
     71      -2.5877      1.00000
     72      -2.5800      1.00000
     73      -2.5282      1.00000
     74      -2.4409      1.00000
     75      -2.3456      1.00000
     76      -2.1849      1.00000
     77      -2.0804      1.00000
     78      -2.0720      1.00000
     79      -2.0366      1.00000
     80      -1.9036      1.00000
     81      -1.8584      1.00000
     82      -1.8385      1.00000
     83      -1.6971      1.00000
     84      -1.6673      1.00000
     85      -1.6475      1.00000
     86      -1.5347      1.00000
     87      -1.4440      1.00000
     88      -1.3198      1.00000
     89       0.3661      0.00000
     90       0.6172      0.00000
     91       0.7703      0.00000
     92       0.8857      0.00000
     93       1.1793      0.00000
     94       1.3527      0.00000
     95       1.3943      0.00000
     96       2.0266      0.00000
     97       3.0288      0.00000
     98       3.0304      0.00000
     99       3.5425      0.00000
    100       3.6540      0.00000
    101       3.6999      0.00000
    102       3.7125      0.00000
    103       3.7677      0.00000
    104       3.9257      0.00000
    105       3.9517      0.00000
    106       3.9764      0.00000
    107       3.9791      0.00000
    108       4.3064      0.00000
    109       4.3082      0.00000
    110       4.4204      0.00000
    111       5.1359      0.00000
    112       5.5123      0.00000
    113       5.8805      0.00000
    114       6.8502      0.00000
    115       7.1407      0.00000
    116       7.1692      0.00000
    117       7.1820      0.00000
    118       7.4530      0.00000
    119       7.5775      0.00000
    120       7.8970      0.00000
    121       8.1797      0.00000
    122       8.2663      0.00000
    123       8.2974      0.00000
    124       8.6818      0.00000
    125       8.9903      0.00000
    126       9.2194      0.00000
    127       9.2995      0.00000
    128       9.4961      0.00000

 k-point     4 :       0.2000    0.2000    0.0000
  band No.  band energies     occupation 
      1     -19.7694      1.00000
      2     -19.3264      1.00000
      3     -19.1782      1.00000
      4     -19.1300      1.00000
      5     -18.8565      1.00000
      6     -18.7707      1.00000
      7     -18.7308      1.00000
      8     -18.6718      1.00000
      9     -18.6662      1.00000
     10     -18.5005      1.00000
     11     -18.0038      1.00000
     12     -17.7329      1.00000
     13     -17.7021      1.00000
     14     -17.4604      1.00000
     15     -17.4281      1.00000
     16     -17.4050      1.00000
     17      -8.5323      1.00000
     18      -7.8067      1.00000
     19      -7.7514      1.00000
     20      -7.3960      1.00000
     21      -7.1902      1.00000
     22      -7.1181      1.00000
     23      -7.0859      1.00000
     24      -6.9186      1.00000
     25      -6.7837      1.00000
     26      -6.6220      1.00000
     27      -6.5727      1.00000
     28      -6.1681      1.00000
     29      -5.9067      1.00000
     30      -5.8370      1.00000
     31      -5.6334      1.00000
     32      -5.5709      1.00000
     33      -5.5472      1.00000
     34      -5.3926      1.00000
     35      -5.3426      1.00000
     36      -5.2579      1.00000
     37      -5.1132      1.00000
     38      -5.0281      1.00000
     39      -4.9532      1.00000
     40      -4.8048      1.00000
     41      -4.6465      1.00000
     42      -4.5643      1.00000
     43      -4.4782      1.00000
     44      -4.3871      1.00000
     45      -4.3531      1.00000
     46      -4.3389      1.00000
     47      -4.2181      1.00000
     48      -4.1886      1.00000
     49      -4.1589      1.00000
     50      -4.1266      1.00000
     51      -3.7921      1.00000
     52      -3.7128      1.00000
     53      -3.6913      1.00000
     54      -3.6569      1.00000
     55      -3.6234      1.00000
     56      -3.4444      1.00000
     57      -3.3990      1.00000
     58      -3.3473      1.00000
     59      -3.3132      1.00000
     60      -3.2819      1.00000
     61      -3.2388      1.00000
     62      -3.1093      1.00000
     63      -3.0846      1.00000
     64      -3.0576      1.00000
     65      -2.9263      1.00000
     66      -2.8597      1.00000
     67      -2.8343      1.00000
     68      -2.7915      1.00000
     69      -2.7336      1.00000
     70      -2.6208      1.00000
     71      -2.5324      1.00000
     72      -2.4934      1.00000
     73      -2.4645      1.00000
     74      -2.4082      1.00000
     75      -2.3274      1.00000
     76      -2.2395      1.00000
     77      -2.2298      1.00000
     78      -2.1050      1.00000
     79      -2.0686      1.00000
     80      -1.9860      1.00000
     81      -1.9417      1.00000
     82      -1.8891      1.00000
     83      -1.6904      1.00000
     84      -1.6437      1.00000
     85      -1.6001      1.00000
     86      -1.5280      1.00000
     87      -1.4782      1.00000
     88      -1.3509      1.00000
     89       0.4112      0.00000
     90       0.7489      0.00000
     91       0.7957      0.00000
     92       0.9258      0.00000
     93       1.2080      0.00000
     94       1.2163      0.00000
     95       1.3254      0.00000
     96       2.5088      0.00000
     97       2.5123      0.00000
     98       3.2809      0.00000
     99       3.5863      0.00000
    100       3.7111      0.00000
    101       3.7410      0.00000
    102       3.7708      0.00000
    103       3.7741      0.00000
    104       3.8363      0.00000
    105       3.8847      0.00000
    106       3.9381      0.00000
    107       3.9950      0.00000
    108       3.9987      0.00000
    109       4.2368      0.00000
    110       4.6314      0.00000
    111       5.5482      0.00000
    112       5.9367      0.00000
    113       6.0708      0.00000
    114       6.2766      0.00000
    115       6.5300      0.00000
    116       6.8762      0.00000
    117       7.2022      0.00000
    118       7.5413      0.00000
    119       7.6810      0.00000
    120       7.7217      0.00000
    121       8.5319      0.00000
    122       8.6297      0.00000
    123       8.7635      0.00000
    124       8.9526      0.00000
    125       9.0996      0.00000
    126       9.1564      0.00000
    127       9.2811      0.00000
    128       9.3758      0.00000

 k-point     5 :       0.4000    0.2000    0.0000
  band No.  band energies     occupation 
      1     -19.5211      1.00000
      2     -19.4604      1.00000
      3     -19.2176      1.00000
      4     -19.1081      1.00000
      5     -18.9557      1.00000
      6     -18.7592      1.00000
      7     -18.7064      1.00000
      8     -18.6628      1.00000
      9     -18.6424      1.00000
     10     -18.5818      1.00000
     11     -18.0811      1.00000
     12     -17.7415      1.00000
     13     -17.6925      1.00000
     14     -17.4470      1.00000
     15     -17.3992      1.00000
     16     -17.3937      1.00000
     17      -8.1950      1.00000
     18      -8.1351      1.00000
     19      -7.7981      1.00000
     20      -7.2905      1.00000
     21      -7.0811      1.00000
     22      -7.0389      1.00000
     23      -6.9532      1.00000
     24      -6.8581      1.00000
     25      -6.6109      1.00000
     26      -6.4535      1.00000
     27      -6.3928      1.00000
     28      -6.2657      1.00000
     29      -6.1668      1.00000
     30      -5.8763      1.00000
     31      -5.8109      1.00000
     32      -5.6500      1.00000
     33      -5.4466      1.00000
     34      -5.3922      1.00000
     35      -5.2149      1.00000
     36      -5.1914      1.00000
     37      -5.0825      1.00000
     38      -4.9723      1.00000
     39      -4.8571      1.00000
     40      -4.8346      1.00000
     41      -4.7690      1.00000
     42      -4.6970      1.00000
     43      -4.5561      1.00000
     44      -4.5374      1.00000
     45      -4.4895      1.00000
     46      -4.4112      1.00000
     47      -4.3082      1.00000
     48      -4.2552      1.00000
     49      -4.2075      1.00000
     50      -4.2012      1.00000
     51      -3.9101      1.00000
     52      -3.7708      1.00000
     53      -3.6990      1.00000
     54      -3.6772      1.00000
     55      -3.6547      1.00000
     56      -3.4531      1.00000
     57      -3.3271      1.00000
     58      -3.2593      1.00000
     59      -3.2204      1.00000
     60      -3.1642      1.00000
     61      -3.1136      1.00000
     62      -3.0946      1.00000
     63      -3.0832      1.00000
     64      -3.0476      1.00000
     65      -3.0248      1.00000
     66      -2.9853      1.00000
     67      -2.9438      1.00000
     68      -2.8806      1.00000
     69      -2.8740      1.00000
     70      -2.6619      1.00000
     71      -2.5453      1.00000
     72      -2.5010      1.00000
     73      -2.4010      1.00000
     74      -2.3798      1.00000
     75      -2.3016      1.00000
     76      -2.2308      1.00000
     77      -2.2035      1.00000
     78      -2.1533      1.00000
     79      -1.9945      1.00000
     80      -1.8825      1.00000
     81      -1.8023      1.00000
     82      -1.7918      1.00000
     83      -1.7319      1.00000
     84      -1.6794      1.00000
     85      -1.6270      1.00000
     86      -1.4652      1.00000
     87      -1.3591      1.00000
     88      -1.2798      1.00000
     89       0.4504      0.00000
     90       0.5247      0.00000
     91       0.7274      0.00000
     92       0.9054      0.00000
     93       1.0939      0.00000
     94       1.2185      0.00000
     95       1.7710      0.00000
     96       1.7736      0.00000
     97       2.4029      0.00000
     98       3.2907      0.00000
     99       3.6058      0.00000
    100       3.6323      0.00000
    101       3.6775      0.00000
    102       3.6887      0.00000
    103       3.7724      0.00000
    104       3.8511      0.00000
    105       3.8739      0.00000
    106       3.9059      0.00000
    107       3.9682      0.00000
    108       4.4354      0.00000
    109       4.7184      0.00000
    110       4.7807      0.00000
    111       4.9921      0.00000
    112       5.2923      0.00000
    113       5.8238      0.00000
    114       6.1690      0.00000
    115       6.4811      0.00000
    116       6.5709      0.00000
    117       7.4995      0.00000
    118       7.7876      0.00000
    119       7.8036      0.00000
    120       7.9267      0.00000
    121       8.3857      0.00000
    122       8.4333      0.00000
    123       8.7381      0.00000
    124       9.0888      0.00000
    125       9.0998      0.00000
    126       9.1287      0.00000
    127       9.5151      0.00000
    128       9.6218      0.00000


--------------------------------------------------------------------------------------------------------


 soft charge-density along one line, spin component           1
         0         1         2         3         4         5         6         7         8         9
 total charge-density along one line
 
 soft charge-density along one line, spin component           2
         0         1         2         3         4         5         6         7         8         9
 total charge-density along one line
 
 pseudopotential strength for first ion, spin component:           1
-10.283   0.000  -0.000   0.499   0.000 -10.674   0.000  -0.000
  0.000 -10.631   0.001   0.000   0.506   0.000 -11.010   0.001
 -0.000   0.001  -9.894   0.000   0.000  -0.000   0.001 -10.296
  0.499   0.000   0.000 -10.623  -0.000   0.484   0.000   0.000
  0.000   0.506   0.000  -0.000 -10.288   0.000   0.490   0.000
-10.674   0.000  -0.000   0.484   0.000 -11.037   0.000  -0.000
  0.000 -11.010   0.001   0.000   0.490   0.000 -11.364   0.001
 -0.000   0.001 -10.296   0.000   0.000  -0.000   0.001 -10.668
  0.484   0.000   0.000 -11.002  -0.000   0.470   0.000   0.000
  0.000   0.490   0.000  -0.000 -10.679   0.000   0.476   0.000
  0.000   0.000   0.000   0.000   0.000   0.000   0.000  -0.000
  0.000   0.000   0.000   0.000   0.000   0.000   0.000  -0.000
 -0.000  -0.004  -0.000   0.000  -0.000  -0.000  -0.005  -0.000
  0.000   0.000  -0.006  -0.000   0.000   0.000   0.000  -0.006
 -0.000   0.000   0.000  -0.004  -0.000  -0.000   0.000   0.000
 -0.000  -0.004  -0.000  -0.000  -0.001  -0.000  -0.004  -0.000
 -0.000   0.000  -0.006  -0.000   0.000   0.000   0.000  -0.006
 -0.001  -0.000   0.000  -0.004  -0.000  -0.000   0.000   0.000
 pseudopotential strength for first ion, spin component:           2
 -7.378  -0.000   0.000  -2.323   0.000  -7.831  -0.000   0.000
 -0.000  -5.663  -0.001   0.000  -2.327  -0.000  -6.120  -0.001
  0.000  -0.001  -8.945  -0.000   0.002   0.000  -0.001  -9.395
 -2.323   0.000  -0.000  -5.662   0.000  -2.319   0.000  -0.000
  0.000  -2.327   0.002   0.000  -7.372   0.000  -2.323   0.002
 -7.831  -0.000   0.000  -2.319   0.000  -8.237  -0.000   0.000
 -0.000  -6.120  -0.001   0.000  -2.323  -0.000  -6.511  -0.001
  0.000  -0.001  -9.395  -0.000   0.002   0.000  -0.001  -9.814
 -2.319   0.000  -0.000  -6.118   0.000  -2.338   0.000  -0.000
  0.000  -2.323   0.002   0.000  -7.825   0.000  -2.343   0.002
  0.000  -0.000  -0.002   0.000   0.000   0.000  -0.000  -0.002
  0.000  -0.000  -0.003   0.000   0.000   0.000  -0.000  -0.003
 -0.000  -0.007  -0.000   0.000   0.001  -0.000  -0.007  -0.000
  0.000   0.000  -0.007  -0.000  -0.000   0.000   0.000  -0.007
  0.001   0.000   0.000  -0.007  -0.000   0.001   0.000   0.000
 -0.000  -0.008  -0.000   0.000   0.001  -0.000  -0.008  -0.000
  0.000   0.000  -0.008  -0.000  -0.000   0.000   0.000  -0.008
  0.001   0.000   0.000  -0.008  -0.000   0.001   0.000   0.000
 total augmentation occupancy for first ion, spin component:           1
  8.310  -0.000   0.000  -2.900   0.000  -6.280   0.000  -0.000   3.550  -0.000   0.000  -0.000   0.000   0.000   0.020   0.000
 -0.000   9.165  -0.018  -0.000  -2.936   0.000  -7.505   0.016   0.000   3.563  -0.004   0.000   0.009  -0.001  -0.000  -0.018
  0.000  -0.018   4.900  -0.000  -0.019  -0.000   0.016  -2.435   0.000   0.017   0.629  -0.209   0.002   0.036   0.000  -0.000
 -2.900  -0.000  -0.000   9.103   0.000   3.529   0.000   0.000  -7.452  -0.000   0.000  -0.000  -0.000   0.000   0.008   0.000
  0.000  -2.936  -0.019   0.000   8.355  -0.000   3.584   0.017  -0.000  -6.322   0.001  -0.001   0.022   0.001  -0.000   0.002
 -6.280   0.000  -0.000   3.529  -0.000   6.021  -0.000   0.000  -3.771   0.000  -0.000   0.000  -0.000  -0.000  -0.022  -0.000
  0.000  -7.505   0.016   0.000   3.584  -0.000   7.335  -0.014  -0.000  -3.802   0.004  -0.000   0.006   0.001  -0.000   0.010
 -0.000   0.016  -2.435   0.000   0.017   0.000  -0.014   2.026  -0.000  -0.015  -0.607   0.208  -0.001  -0.028  -0.000   0.000
  3.550   0.000   0.000  -7.452  -0.000  -3.771  -0.000  -0.000   7.290   0.000  -0.000   0.000  -0.000  -0.000   0.007  -0.000
 -0.000   3.563   0.017  -0.000  -6.322   0.000  -3.802  -0.015   0.000   6.060  -0.000   0.001  -0.024  -0.001   0.000  -0.002
  0.000  -0.004   0.629   0.000   0.001  -0.000   0.004  -0.607  -0.000  -0.000   2.528  -0.554   0.001   0.001  -0.000  -0.000
 -0.000   0.000  -0.209  -0.000  -0.001   0.000  -0.000   0.208   0.000   0.001  -0.554   0.147  -0.000   0.006   0.000   0.000
  0.000   0.009   0.002  -0.000   0.022  -0.000   0.006  -0.001  -0.000  -0.024   0.001  -0.000   0.450   0.000  -0.000  -0.085
  0.000  -0.001   0.036   0.000   0.001  -0.000   0.001  -0.028  -0.000  -0.001   0.001   0.006   0.000   0.368  -0.000  -0.000
  0.020  -0.000   0.000   0.008  -0.000  -0.022  -0.000  -0.000   0.007   0.000  -0.000   0.000  -0.000  -0.000   0.450   0.000
  0.000  -0.018  -0.000   0.000   0.002  -0.000   0.010   0.000  -0.000  -0.002  -0.000   0.000  -0.085  -0.000   0.000   0.019
 -0.000   0.000  -0.016  -0.000  -0.000   0.000  -0.000   0.006   0.000   0.000   0.001  -0.001  -0.000  -0.062   0.000   0.000
  0.003   0.000   0.000  -0.018  -0.000  -0.003  -0.000  -0.000   0.010   0.000   0.000  -0.000   0.000   0.000  -0.085  -0.000
 total augmentation occupancy for first ion, spin component:           2
  3.292  -0.000   0.000  -3.702   0.000  -2.433   0.000  -0.000   2.805  -0.000  -0.000   0.000   0.000  -0.000   0.005   0.000
 -0.000   5.854  -0.005  -0.000  -3.747   0.000  -4.352   0.004   0.000   2.876  -0.001   0.001  -0.011  -0.001   0.000  -0.011
  0.000  -0.005   0.649  -0.000  -0.000  -0.000   0.004  -0.394   0.000   0.000  -0.007   0.007   0.000  -0.003   0.000   0.000
 -3.702  -0.000  -0.000   5.806   0.000   2.836   0.000   0.000  -4.309  -0.000   0.000  -0.000   0.000   0.000  -0.012   0.000
  0.000  -3.747  -0.000   0.000   3.329  -0.000   2.845   0.000  -0.000  -2.465   0.001  -0.001   0.005   0.000  -0.000   0.007
 -2.433   0.000  -0.000   2.836  -0.000   1.845  -0.000   0.000  -2.330   0.000   0.000  -0.000  -0.000   0.000  -0.003  -0.000
  0.000  -4.352   0.004   0.000   2.845  -0.000   3.409  -0.004  -0.000  -2.365   0.001  -0.000   0.006   0.000  -0.000   0.008
 -0.000   0.004  -0.394   0.000   0.000   0.000  -0.004   0.141  -0.000  -0.001   0.006  -0.006  -0.000   0.002  -0.000  -0.000
  2.805   0.000   0.000  -4.309  -0.000  -2.330  -0.000  -0.000   3.369   0.000  -0.000   0.000  -0.000  -0.000   0.007  -0.000
 -0.000   2.876   0.000  -0.000  -2.465   0.000  -2.365  -0.001   0.000   1.874  -0.001   0.000  -0.002  -0.000   0.000  -0.005
 -0.000  -0.001  -0.007   0.000   0.001   0.000   0.001   0.006  -0.000  -0.001  -0.202   0.087  -0.000  -0.002   0.000   0.000
  0.000   0.001   0.007  -0.000  -0.001  -0.000  -0.000  -0.006   0.000   0.000   0.087  -0.025  -0.000   0.001   0.000  -0.000
  0.000  -0.011   0.000   0.000   0.005  -0.000   0.006  -0.000  -0.000  -0.002  -0.000  -0.000  -0.013  -0.000   0.000   0.009
 -0.000  -0.001  -0.003   0.000   0.000   0.000   0.000   0.002  -0.000  -0.000  -0.002   0.001  -0.000  -0.011   0.000  -0.000
  0.005   0.000   0.000  -0.012  -0.000  -0.003  -0.000  -0.000   0.007   0.000   0.000   0.000   0.000   0.000  -0.013  -0.000
  0.000  -0.011   0.000   0.000   0.007  -0.000   0.008  -0.000  -0.000  -0.005   0.000  -0.000   0.009  -0.000  -0.000  -0.002
 -0.000   0.000  -0.001  -0.000  -0.000   0.000  -0.000   0.001   0.000   0.000   0.000   0.000  -0.000   0.008   0.000   0.000
  0.008   0.000   0.000  -0.011  -0.000  -0.005  -0.000  -0.000   0.008   0.000  -0.000   0.000  -0.000   0.000   0.009   0.000


------------------------ aborting loop because EDIFF is reached ----------------------------------------





 total charge

# of ion       s       p       d       tot
------------------------------------------
    1        0.401   0.576   8.331   9.308
    2        0.401   0.576   8.331   9.308
    3        0.403   0.579   8.331   9.313
    4        0.401   0.576   8.331   9.308
    5        0.465   0.717   8.307   9.488
    6        0.363   0.461   8.247   9.072
    7        0.465   0.717   8.307   9.488
    8        0.465   0.717   8.307   9.488
    9        1.561   3.438   0.000   4.999
   10        1.560   3.440   0.000   5.000
   11        1.561   3.438   0.000   4.999
   12        1.561   3.438   0.000   4.999
   13        1.551   3.577   0.000   5.129
   14        1.551   3.577   0.000   5.129
   15        1.551   3.577   0.000   5.129
   16        1.551   3.586   0.000   5.137
   17        1.572   3.381   0.000   4.953
   18        1.572   3.381   0.000   4.953
   19        1.572   3.381   0.000   4.953
   20        1.576   3.342   0.000   4.918
   21        1.569   3.385   0.000   4.954
   22        1.569   3.385   0.000   4.954
   23        1.583   3.294   0.000   4.877
   24        1.569   3.385   0.000   4.954
   25        0.454   0.035   0.000   0.489
   26        0.454   0.035   0.000   0.488
   27        0.454   0.035   0.000   0.489
   28        0.454   0.035   0.000   0.489
   29        0.553   0.120   0.000   0.672
   30        0.553   0.120   0.000   0.672
   31        0.553   0.120   0.000   0.672
   32        0.567   0.124   0.000   0.691
   33        0.111   0.235   0.000   0.345
--------------------------------------------------
tot         32.542  60.780  66.493 159.815



 magnetization (x)

# of ion       s       p       d       tot
------------------------------------------
    1        0.004   0.007   1.662   1.673
    2        0.004   0.007   1.662   1.673
    3        0.004   0.007   1.648   1.659
    4        0.004   0.007   1.662   1.673
    5        0.002   0.003   0.162   0.167
    6        0.005   0.004   1.734   1.743
    7        0.002   0.003   0.162   0.167
    8        0.002   0.003   0.162   0.167
    9        0.016   0.024   0.000   0.040
   10        0.016   0.026   0.000   0.042
   11        0.016   0.024   0.000   0.040
   12        0.016   0.024   0.000   0.040
   13        0.011   0.005   0.000   0.017
   14        0.011   0.005   0.000   0.017
   15        0.011   0.005   0.000   0.017
   16        0.012   0.012   0.000   0.024
   17        0.004  -0.017   0.000  -0.013
   18        0.004  -0.017   0.000  -0.013
   19        0.004  -0.017   0.000  -0.013
   20        0.001  -0.064   0.000  -0.062
   21        0.004  -0.007   0.000  -0.004
   22        0.004  -0.007   0.000  -0.004
   23        0.000  -0.087   0.000  -0.087
   24        0.004  -0.007   0.000  -0.004
   25        0.008   0.000   0.000   0.008
   26        0.007   0.000   0.000   0.008
   27        0.008   0.000   0.000   0.008
   28        0.008   0.000   0.000   0.008
   29        0.002   0.001   0.000   0.003
   30        0.002   0.001   0.000   0.003
   31        0.002   0.001   0.000   0.003
   32        0.002   0.000   0.000   0.002
   33        0.003   0.006   0.000   0.009
--------------------------------------------------
tot          0.201  -0.043   8.852   9.010
 
    CHARGE:  cpu time      0.2178: real time      0.2187
    FORLOC:  cpu time      0.0056: real time      0.0106
    FORNL :  cpu time      0.4976: real time      0.5079
    STRESS:  cpu time      0.6860: real time      0.7036
    FORCOR:  cpu time      0.0660: real time      0.0753
    FORHAR:  cpu time      0.0117: real time      0.0168
    MIXING:  cpu time      0.0047: real time      0.0047
    OFIELD:  cpu time      0.0003: real time      0.0093

 ---------------------------------------------------------------------------------------------

         DFTD3 V3.0 Rev 1        
 IVDW         = 11
 DF pbe       
 parameters
 VDW_S6       =    1.0000
 VDW_S8       =    0.7220
 VDW_SR       =    1.2170
 rs18     =    1.0000
 alpha6   =   14.0000
 alpha8   =   16.0000
 k1-k3    =   16.0000    1.3333   -4.0000
 VDW_RADIUS   =   50.2022 A
 VDW_CNRADIUS =   21.1671 A
 Edisp (eV)   -3.31284

 E6    (eV) :    -1.6113
 E8    (eV) :    -1.7015
 % E8        : 51.36
    FORVDW:  cpu time      0.1959: real time      0.2488

  FORCE on cell =-STRESS in cart. coord.  units (eV):
  Direction    XX          YY          ZZ          XY          YZ          ZX
  --------------------------------------------------------------------------------------
  Alpha Z   248.28095   248.28095   248.28095
  Ewald   55920.17548 55920.17553-64675.80407     0.00027     0.00023    -0.00051
  Hartree 60009.64569 60009.64566-57727.28767    -0.00002     0.00009    -0.00017
  E(xc)    -945.74456  -945.74458  -944.52030    -0.00002    -0.00000     0.00000
  Local  ************************119291.35683    -0.00041    -0.00029     0.00061
  n-local  -450.41510  -448.92818  -454.71710    -1.04880    -0.53435    -1.41800
  augment  1516.23913  1516.23943  1528.16005     0.00024     0.00000     0.00001
  Kinetic  2833.48969  2827.51343  2717.60410     3.67008    -1.04188    -2.64687
  Fock        0.00000     0.00000     0.00000     0.00000     0.00000     0.00000
  vdW        -2.97420    -2.97420    -1.69451     0.00000    -0.00000    -0.00000
  -------------------------------------------------------------------------------------
  Total       3.61557     3.61557   -18.62172    -0.00000    -0.00000    -0.00000
  in kB       9.70994     9.70994   -50.01033    -0.00000    -0.00000    -0.00000
  external pressure =      -10.20 kB  Pullay stress =        0.00 kB


 VOLUME and BASIS-vectors are now :
 -----------------------------------------------------------------------------
  energy-cutoff  :      600.00
  volume of cell :      596.58
      direct lattice vectors                 reciprocal lattice vectors
     5.868877888  0.000000000  0.000000000     0.170390323  0.098374929  0.000000000
    -2.934439621  5.082596952  0.000000000     0.000000000  0.196749813  0.000000000
     0.000000000  0.000000000 20.000000000     0.000000000  0.000000000  0.050000000

  length of vectors
     5.868877888  5.868877888 20.000000000     0.196749813  0.196749813  0.050000000


 FORCES acting on ions
    electron-ion (+dipol)            ewald-force                    non-local-force                 convergence-correction
 -----------------------------------------------------------------------------------------------
   -.193E-04 0.229E+01 0.148E+04   0.438E-04 -.235E+01 -.147E+04   -.425E-08 0.319E-01 -.187E+01   -.126E-11 0.112E-05 -.148E-06
   0.198E+01 -.114E+01 0.148E+04   -.203E+01 0.117E+01 -.147E+04   0.277E-01 -.160E-01 -.187E+01   0.970E-06 -.560E-06 -.147E-06
   0.814E-04 0.121E-04 0.148E+04   -.125E-03 -.730E-04 -.148E+04   0.619E-18 -.456E-18 -.188E+01   -.635E-11 -.745E-11 -.111E-05
   -.198E+01 -.114E+01 0.148E+04   0.203E+01 0.117E+01 -.147E+04   -.277E-01 -.160E-01 -.187E+01   -.970E-06 -.560E-06 -.147E-06
   -.415E+01 -.240E+01 -.155E+04   0.377E+01 0.218E+01 0.155E+04   0.401E+00 0.232E+00 0.496E+00   -.313E-05 -.180E-05 0.914E-05
   -.319E-04 -.693E-04 -.162E+04   0.645E-04 0.845E-04 0.162E+04   -.387E-18 0.218E-19 0.104E+00   0.249E-10 -.989E-11 0.586E-05
   0.415E+01 -.240E+01 -.155E+04   -.377E+01 0.218E+01 0.155E+04   -.401E+00 0.232E+00 0.496E+00   0.313E-05 -.180E-05 0.914E-05
   0.634E-04 0.479E+01 -.155E+04   -.108E-03 -.436E+01 0.155E+04   0.617E-07 -.463E+00 0.496E+00   -.537E-10 0.361E-05 0.914E-05
   -.295E+00 -.170E+00 0.155E+04   0.260E+00 0.150E+00 -.154E+04   0.308E-01 0.178E-01 -.188E+02   0.203E-05 0.117E-05 -.286E-05
   -.398E-04 0.114E-03 0.155E+04   0.682E-04 0.386E-04 -.153E+04   0.507E-17 -.701E-18 -.187E+02   0.263E-11 0.715E-11 -.279E-05
   0.294E+00 -.170E+00 0.155E+04   -.260E+00 0.150E+00 -.154E+04   -.308E-01 0.178E-01 -.188E+02   -.203E-05 0.117E-05 -.286E-05
   -.220E-03 0.340E+00 0.155E+04   -.188E-04 -.300E+00 -.154E+04   0.474E-08 -.356E-01 -.188E+02   -.101E-10 -.235E-05 -.286E-05
   -.797E+01 0.460E+01 0.243E+03   0.925E+01 -.534E+01 -.260E+03   -.134E+01 0.772E+00 0.167E+02   0.186E-05 -.107E-05 0.300E-05
   -.785E-04 -.921E+01 0.243E+03   -.450E-04 0.107E+02 -.260E+03   0.206E-06 -.154E+01 0.167E+02   0.429E-12 0.214E-05 0.300E-05
   0.797E+01 0.460E+01 0.243E+03   -.925E+01 -.534E+01 -.260E+03   0.134E+01 0.772E+00 0.167E+02   -.186E-05 -.107E-05 0.300E-05
   -.941E-04 0.151E-03 0.245E+03   -.257E-04 0.773E-04 -.263E+03   0.257E-17 0.960E-18 0.179E+02   0.122E-11 0.453E-11 0.212E-05
   -.474E+02 0.274E+02 -.299E+03   0.516E+02 -.298E+02 0.285E+03   -.415E+01 0.239E+01 0.135E+02   -.330E-06 0.191E-06 0.799E-05
   -.121E-03 -.548E+02 -.299E+03   0.195E-04 0.595E+02 0.285E+03   0.638E-06 -.479E+01 0.135E+02   -.233E-10 -.381E-06 0.799E-05
   0.474E+02 0.274E+02 -.299E+03   -.516E+02 -.298E+02 0.285E+03   0.415E+01 0.239E+01 0.135E+02   0.330E-06 0.191E-06 0.799E-05
   -.124E-03 0.206E-03 -.284E+03   0.198E-04 -.841E-05 0.269E+03   0.503E-18 -.325E-17 0.148E+02   -.865E-11 0.944E-11 0.939E-05
   -.410E-04 0.531E+02 -.160E+04   0.974E-06 -.609E+02 0.162E+04   -.104E-05 0.779E+01 -.143E+02   0.556E-11 -.129E-06 0.127E-05
   0.460E+02 -.266E+02 -.160E+04   -.527E+02 0.305E+02 0.162E+04   0.675E+01 -.390E+01 -.143E+02   -.112E-06 0.647E-07 0.127E-05
   -.202E-03 -.238E-04 -.161E+04   -.103E-03 -.228E-04 0.163E+04   0.569E-17 -.365E-17 -.216E+02   0.861E-12 -.773E-11 -.925E-06
   -.460E+02 -.266E+02 -.160E+04   0.527E+02 0.305E+02 0.162E+04   -.675E+01 -.390E+01 -.143E+02   0.112E-06 0.647E-07 0.127E-05
   -.853E-02 -.493E-02 0.331E+03   0.983E-02 0.567E-02 -.329E+03   0.599E-03 0.346E-03 0.361E+01   0.109E-06 0.627E-07 -.863E-06
   -.124E-05 0.712E-05 0.331E+03   0.328E-05 0.295E-05 -.329E+03   -.370E-19 0.455E-19 0.361E+01   0.330E-12 0.485E-12 -.877E-06
   0.852E-02 -.493E-02 0.331E+03   -.982E-02 0.567E-02 -.329E+03   -.599E-03 0.346E-03 0.361E+01   -.109E-06 0.627E-07 -.863E-06
   -.126E-04 0.986E-02 0.331E+03   -.249E-05 -.113E-01 -.329E+03   0.922E-10 -.692E-03 0.361E+01   -.544E-12 -.125E-06 -.863E-06
   -.249E+00 0.144E+00 -.467E+02   -.765E-01 0.441E-01 0.532E+02   0.324E+00 -.187E+00 -.662E+01   0.405E-07 -.234E-07 0.107E-05
   -.846E-05 -.288E+00 -.467E+02   -.131E-05 -.883E-01 0.532E+02   -.499E-07 0.375E+00 -.662E+01   -.238E-11 0.468E-07 0.107E-05
   0.249E+00 0.144E+00 -.467E+02   0.765E-01 0.441E-01 0.532E+02   -.324E+00 -.187E+00 -.662E+01   -.405E-07 -.234E-07 0.107E-05
   -.974E-05 0.161E-04 -.482E+02   -.186E-06 0.411E-05 0.551E+02   -.244E-19 0.581E-20 -.698E+01   -.107E-12 0.712E-12 0.411E-06
   0.208E-05 -.421E-06 -.309E+03   -.975E-06 0.214E-05 0.306E+03   0.932E-18 -.128E-18 0.308E+01   -.984E-13 0.894E-13 0.490E-06
 -----------------------------------------------------------------------------------------------
   -.120E-02 0.578E-03 0.313E+02   -.527E-13 0.169E-14 0.381E-11   0.172E-14 -.500E-15 -.313E+02   -.959E-11 0.116E-11 0.684E-04
 
 
 POSITION                                       TOTAL-FORCE (eV/Angst)
 -----------------------------------------------------------------------------------
      1.46722      0.84710      4.36757         0.000000     -0.028661      0.481234
     -0.00000      3.38840      4.36757        -0.024821      0.014331      0.481234
      4.40166      0.84710      4.36757         0.000000      0.000000      0.390894
      2.93444      3.38840      4.36757         0.024821      0.014331      0.481234
     -0.00972      1.68858      8.85799        -0.000418     -0.000242      0.000277
     -1.46722      4.23550      8.92359        -0.000000     -0.000000      0.000254
      2.94416      1.68858      8.85799         0.000418     -0.000242      0.000277
      1.46722      4.24673      8.85799        -0.000000      0.000483      0.000277
     -0.00000      1.69420      3.38242        -0.003764     -0.002173     -6.069131
     -1.46722      4.23550      3.38242        -0.000000     -0.000000     -6.057276
      2.93444      1.69420      3.38242         0.003764     -0.002173     -6.069131
      1.46722      4.23550      3.38242        -0.000000      0.004346     -6.069131
      0.00000      0.00000      5.35271        -0.057598      0.033254      0.606619
     -1.46722      2.54130      5.35271         0.000000     -0.066508      0.606619
      2.93444      0.00000      5.35271         0.057598      0.033254      0.606619
      1.46722      2.54130      5.35271         0.000000     -0.000000      0.490746
      5.78366      0.04920      7.94749        -0.000162      0.000094      0.000693
      4.40166      2.44290      7.94749         0.000000     -0.000188      0.000693
      3.01966      0.04920      7.94749         0.000162      0.000094      0.000693
      1.46722      2.54130      7.94918        -0.000000      0.000000      0.000165
      1.46722      0.97803      9.83606        -0.000000      0.000444      0.000147
      0.11339      3.32293      9.83606         0.000384     -0.000222      0.000147
      4.40166      0.84710      9.78099         0.000000     -0.000000      0.000132
      2.82105      3.32293      9.83606        -0.000384     -0.000222      0.000147
     -0.00000      1.69420      2.18378         0.001885      0.001088      5.025832
     -1.46722      4.23550      2.18378         0.000000      0.000000      5.036379
      2.93444      1.69420      2.18378        -0.001885      0.001088      5.025832
      1.46722      4.23550      2.18378         0.000000     -0.002176      5.025832
      5.82262      0.02670      6.36712         0.000201     -0.000116      0.000655
      4.40166      2.48789      6.36712        -0.000000      0.000232      0.000655
      2.98069      0.02670      6.36712        -0.000201     -0.000116      0.000655
      1.46722      2.54130      6.35748         0.000000     -0.000000     -0.000746
      1.46722      2.54130     10.87624         0.000000      0.000000      0.000473
 -----------------------------------------------------------------------------------
    total drift:                               -0.001198      0.000578     -0.001064


--------------------------------------------------------------------------------------------------------



  FREE ENERGIE OF THE ION-ELECTRON SYSTEM (eV)
  ---------------------------------------------------
  free  energy   TOTEN  =      -161.18509273 eV

  energy  without entropy=     -161.17579664  energy(sigma->0) =     -161.18044469
 


--------------------------------------------------------------------------------------------------------


    POTLOK:  cpu time      0.0886: real time      0.0911


--------------------------------------------------------------------------------------------------------


 stress matrix after NEB project (eV)
      3.61557     -0.00000     -0.00000
     -0.00000      3.61557     -0.00000
      0.00000     -0.00000    -18.62172
  FORCES: max atom, RMS     0.000746    0.000407
  FORCE total and by dimension    0.002340    0.000746
  Stress total and by dimension   19.310961   18.621722


--------------------------------------------------------------------------------------------------------


  
 reached required accuracy - stopping structural energy minimisation
     LOOP+:  cpu time    197.0423: real time    198.5213
    4ORBIT:  cpu time      0.0000: real time      0.0000



 total charge

# of ion       s       p       d       tot
------------------------------------------
    1        0.401   0.576   8.331   9.308
    2        0.401   0.576   8.331   9.308
    3        0.403   0.579   8.331   9.313
    4        0.401   0.576   8.331   9.308
    5        0.465   0.717   8.307   9.488
    6        0.363   0.461   8.247   9.072
    7        0.465   0.717   8.307   9.488
    8        0.465   0.717   8.307   9.488
    9        1.561   3.438   0.000   4.999
   10        1.560   3.440   0.000   5.000
   11        1.561   3.438   0.000   4.999
   12        1.561   3.438   0.000   4.999
   13        1.551   3.577   0.000   5.129
   14        1.551   3.577   0.000   5.129
   15        1.551   3.577   0.000   5.129
   16        1.551   3.586   0.000   5.137
   17        1.572   3.381   0.000   4.953
   18        1.572   3.381   0.000   4.953
   19        1.572   3.381   0.000   4.953
   20        1.576   3.342   0.000   4.918
   21        1.569   3.385   0.000   4.954
   22        1.569   3.385   0.000   4.954
   23        1.583   3.294   0.000   4.877
   24        1.569   3.385   0.000   4.954
   25        0.454   0.035   0.000   0.489
   26        0.454   0.035   0.000   0.488
   27        0.454   0.035   0.000   0.489
   28        0.454   0.035   0.000   0.489
   29        0.553   0.120   0.000   0.672
   30        0.553   0.120   0.000   0.672
   31        0.553   0.120   0.000   0.672
   32        0.567   0.124   0.000   0.691
   33        0.111   0.235   0.000   0.345
--------------------------------------------------
tot         32.542  60.780  66.493 159.815



 magnetization (x)

# of ion       s       p       d       tot
------------------------------------------
    1        0.004   0.007   1.662   1.673
    2        0.004   0.007   1.662   1.673
    3        0.004   0.007   1.648   1.659
    4        0.004   0.007   1.662   1.673
    5        0.002   0.003   0.162   0.167
    6        0.005   0.004   1.734   1.743
    7        0.002   0.003   0.162   0.167
    8        0.002   0.003   0.162   0.167
    9        0.016   0.024   0.000   0.040
   10        0.016   0.026   0.000   0.042
   11        0.016   0.024   0.000   0.040
   12        0.016   0.024   0.000   0.040
   13        0.011   0.005   0.000   0.017
   14        0.011   0.005   0.000   0.017
   15        0.011   0.005   0.000   0.017
   16        0.012   0.012   0.000   0.024
   17        0.004  -0.017   0.000  -0.013
   18        0.004  -0.017   0.000  -0.013
   19        0.004  -0.017   0.000  -0.013
   20        0.001  -0.064   0.000  -0.062
   21        0.004  -0.007   0.000  -0.004
   22        0.004  -0.007   0.000  -0.004
   23        0.000  -0.087   0.000  -0.087
   24        0.004  -0.007   0.000  -0.004
   25        0.008   0.000   0.000   0.008
   26        0.007   0.000   0.000   0.008
   27        0.008   0.000   0.000   0.008
   28        0.008   0.000   0.000   0.008
   29        0.002   0.001   0.000   0.003
   30        0.002   0.001   0.000   0.003
   31        0.002   0.001   0.000   0.003
   32        0.002   0.000   0.000   0.002
   33        0.003   0.006   0.000   0.009
--------------------------------------------------
tot          0.201  -0.043   8.852   9.010
 

 total amount of memory used by VASP MPI-rank0    51538. kBytes
=======================================================================

   base      :      30000. kBytes
   nonl-proj :       4348. kBytes
   fftplans  :       2625. kBytes
   grid      :       7776. kBytes
   one-center:         93. kBytes
   wavefun   :       6696. kBytes
 
  
  
 General timing and accounting informations for this job:
 ========================================================
  
                  Total CPU time used (sec):      202.016
                            User time (sec):      199.467
                          System time (sec):        2.549
                         Elapsed time (sec):      204.636
  
                   Maximum memory used (kb):      133964.
                   Average memory used (kb):          N/A
  
                          Minor page faults:       174974
                          Major page faults:            0
                 Voluntary context switches:         3033
