Li4 Ti4 P4 O20                          
   1.00000000000000     
     6.4303925517652445    0.0000000000000000    0.0000000000000000
     0.0000000000000000    7.2664342408919973    0.0000000000000000
     0.0000000000000000    0.0000000000000000    7.3949230353976549
   Li   Ti   P    O 
     4     4     4    20
Direct
  0.0000000000000000  0.0000000000000000  0.0000000000000000
  0.5000000000000000  0.5000000000000000  0.5000000000000000
  0.0000000000000000  0.5000000000000000  0.5000000000000000
  0.5000000000000000  0.0000000000000000  0.0000000000000000
  0.7500000000000000  0.2781405234614667  0.8385601252777235
  0.2500000000000000  0.7218594765385333  0.1614398597222717
  0.2500000000000000  0.7781405234614667  0.6614398747222765
  0.7500000000000000  0.2218594765385333  0.3385601552777260
  0.2500000000000000  0.3696765710133008  0.8737927034540149
  0.7500000000000000  0.6303234579866981  0.1262073115459827
  0.7500000000000000  0.8696765420133019  0.6262072965459851
  0.2500000000000000  0.1303234289866992  0.3737927034540149
  0.9431617779229029  0.7439385726226462  0.6279337530918454
  0.5568382220770971  0.7560614273773538  0.1279337680918431
  0.0568382330770945  0.2439385726226462  0.8720662469081546
  0.4431617779229029  0.2560614273773538  0.3720662179081557
  0.0568382330770945  0.2560614273773538  0.3720662179081557
  0.5568382220770971  0.7439385726226462  0.6279337530918454
  0.9431617779229029  0.7560614273773538  0.1279337680918431
  0.4431617779229029  0.2439385726226462  0.8720662469081546
  0.7500000000000000  0.1561449948911857  0.1088946535017428
  0.2500000000000000  0.8438550051088143  0.8911053314982595
  0.2500000000000000  0.6561449948911857  0.3911053614982620
  0.7500000000000000  0.3438550051088143  0.6088946685017405
  0.7500000000000000  0.9964173688979940  0.7952330014623854
  0.2500000000000000  0.0035826231020053  0.2047669835376169
  0.2500000000000000  0.4964173688979940  0.7047669985376146
  0.7500000000000000  0.5035826311020060  0.2952330304623842
  0.2500000000000000  0.4839893075915285  0.0502120460161422
  0.7500000000000000  0.5160106924084715  0.9497879769838562
  0.7500000000000000  0.9839893075915285  0.4497879469838608
  0.2500000000000000  0.0160106864084710  0.5502120230161438
 
  0.00000000E+00  0.00000000E+00  0.00000000E+00
  0.00000000E+00  0.00000000E+00  0.00000000E+00
  0.00000000E+00  0.00000000E+00  0.00000000E+00
  0.00000000E+00  0.00000000E+00  0.00000000E+00
  0.00000000E+00  0.00000000E+00  0.00000000E+00
  0.00000000E+00  0.00000000E+00  0.00000000E+00
  0.00000000E+00  0.00000000E+00  0.00000000E+00
  0.00000000E+00  0.00000000E+00  0.00000000E+00
  0.00000000E+00  0.00000000E+00  0.00000000E+00
  0.00000000E+00  0.00000000E+00  0.00000000E+00
  0.00000000E+00  0.00000000E+00  0.00000000E+00
  0.00000000E+00  0.00000000E+00  0.00000000E+00
  0.00000000E+00  0.00000000E+00  0.00000000E+00
  0.00000000E+00  0.00000000E+00  0.00000000E+00
  0.00000000E+00  0.00000000E+00  0.00000000E+00
  0.00000000E+00  0.00000000E+00  0.00000000E+00
  0.00000000E+00  0.00000000E+00  0.00000000E+00
  0.00000000E+00  0.00000000E+00  0.00000000E+00
  0.00000000E+00  0.00000000E+00  0.00000000E+00
  0.00000000E+00  0.00000000E+00  0.00000000E+00
  0.00000000E+00  0.00000000E+00  0.00000000E+00
  0.00000000E+00  0.00000000E+00  0.00000000E+00
  0.00000000E+00  0.00000000E+00  0.00000000E+00
  0.00000000E+00  0.00000000E+00  0.00000000E+00
  0.00000000E+00  0.00000000E+00  0.00000000E+00
  0.00000000E+00  0.00000000E+00  0.00000000E+00
  0.00000000E+00  0.00000000E+00  0.00000000E+00
  0.00000000E+00  0.00000000E+00  0.00000000E+00
  0.00000000E+00  0.00000000E+00  0.00000000E+00
  0.00000000E+00  0.00000000E+00  0.00000000E+00
  0.00000000E+00  0.00000000E+00  0.00000000E+00
  0.00000000E+00  0.00000000E+00  0.00000000E+00
