 Nb2C                                   
   1.00000000000000     
     6.3456001282000001    0.0000000000000000    0.0000000000000000
    -3.1728000641000000    5.4954509133000000    0.0000000000000000
     0.0000000000000000    0.0000000000000000   25.0000000000000000
   Nb   C    O    Li
    16     8    16     1
Selective dynamics
Direct
  0.1666699946987080  0.3333300054717441  0.1049758047600022   F   F   F
  0.1666699945978749  0.8333300351963331  0.1049758047600022   F   F   F
  0.6666699648985315  0.3333300054717441  0.1049758047600022   F   F   F
  0.6666699647976984  0.8333300351963331  0.1049758047600022   F   F   F
  0.3333300054828499  0.1666699945919419  0.2034865520399975   F   F   F
  0.3333300054145525  0.6666699648127690  0.2034865520399975   F   F   F
  0.8333300352515067  0.1666699945919419  0.2034865520399975   F   F   F
  0.8333300351832094  0.6666699648127690  0.2034865520399975   F   F   F
  0.1561910026712852  0.3219908194340348  0.3838195296883313   T   T   T
  0.1560700354776117  0.8261605625633450  0.3834678247349217   T   T   T
  0.6599939316072181  0.3223164413421671  0.3842763223684784   T   T   T
  0.6603441976692821  0.8260955270019466  0.3838413481795868   T   T   T
  0.3223853804131380  0.6598011749806787  0.4835750693013452   T   T   T
  0.3212856431835291  0.1492874016434698  0.4837432006307552   T   T   T
  0.8329227502587031  0.6608674621105379  0.4837388962248639   T   T   T
  0.8296180500362809  0.1526101992613462  0.4871062026081603   T   T   T
  0.0000000000000000  0.0000000000000000  0.1542281689999996   F   F   F
  0.0000000000397264  0.5000000000636859  0.1542281689999996   F   F   F
  0.4999999999842402  0.0000000000000000  0.1542281689999996   F   F   F
  0.5000000000239666  0.5000000000636859  0.1542281689999996   F   F   F
  0.4921460626695335  0.4900663352005878  0.4345106345995191   T   T   T
  0.4958506558882760  0.9916324498177431  0.4347438901904326   T   T   T
  0.9906061968327009  0.4863524083445014  0.4347380508661232   T   T   T
  0.9907745529551804  0.9914838864009852  0.4343177008397632   T   T   T
  0.3271945657139028  0.1636021828207177  0.0569758047600004   F   F   F
  0.3271945655987523  0.6543989020621552  0.0569758047600004   F   F   F
  0.8179913433361676  0.1636021828207177  0.0569758047600004   F   F   F
  0.8179913433786083  0.6543989020621552  0.0569758047600004   F   F   F
  0.1636021827893970  0.3271945657176758  0.2514865520399994   F   F   F
  0.1636021828837571  0.8179913433710624  0.2514865520399994   F   F   F
  0.6543989021035514  0.3271945657176758  0.2514865520399994   F   F   F
  0.6543989020403131  0.8179913433710624  0.2514865520399994   F   F   F
  0.3257916571296917  0.6565132808628036  0.3423985202880147   T   T   T
  0.3285149035992418  0.1584584911030973  0.3413941287602427   T   T   T
  0.8237860764808573  0.6537328763086876  0.3413842246435408   T   T   T
  0.8258940236754100  0.1563280232215121  0.3407084965475491   T   T   T
  0.1759363874794246  0.3332131087914689  0.5331784095567826   T   T   T
  0.1585081959678689  0.8237727607549061  0.5308493958292999   T   T   T
  0.6510630408853473  0.3311490665021992  0.5320756793022809   T   T   T
  0.6490621058140107  0.8063586307830874  0.5331651706427536   T   T   T
  0.4930013673690539  0.4892560499541148  0.5732400466506320   T   T   T
 
  0.00000000E+00  0.00000000E+00  0.00000000E+00
  0.00000000E+00  0.00000000E+00  0.00000000E+00
  0.00000000E+00  0.00000000E+00  0.00000000E+00
  0.00000000E+00  0.00000000E+00  0.00000000E+00
  0.00000000E+00  0.00000000E+00  0.00000000E+00
  0.00000000E+00  0.00000000E+00  0.00000000E+00
  0.00000000E+00  0.00000000E+00  0.00000000E+00
  0.00000000E+00  0.00000000E+00  0.00000000E+00
  0.00000000E+00  0.00000000E+00  0.00000000E+00
  0.00000000E+00  0.00000000E+00  0.00000000E+00
  0.00000000E+00  0.00000000E+00  0.00000000E+00
  0.00000000E+00  0.00000000E+00  0.00000000E+00
  0.00000000E+00  0.00000000E+00  0.00000000E+00
  0.00000000E+00  0.00000000E+00  0.00000000E+00
  0.00000000E+00  0.00000000E+00  0.00000000E+00
  0.00000000E+00  0.00000000E+00  0.00000000E+00
  0.00000000E+00  0.00000000E+00  0.00000000E+00
  0.00000000E+00  0.00000000E+00  0.00000000E+00
  0.00000000E+00  0.00000000E+00  0.00000000E+00
  0.00000000E+00  0.00000000E+00  0.00000000E+00
  0.00000000E+00  0.00000000E+00  0.00000000E+00
  0.00000000E+00  0.00000000E+00  0.00000000E+00
  0.00000000E+00  0.00000000E+00  0.00000000E+00
  0.00000000E+00  0.00000000E+00  0.00000000E+00
  0.00000000E+00  0.00000000E+00  0.00000000E+00
  0.00000000E+00  0.00000000E+00  0.00000000E+00
  0.00000000E+00  0.00000000E+00  0.00000000E+00
  0.00000000E+00  0.00000000E+00  0.00000000E+00
  0.00000000E+00  0.00000000E+00  0.00000000E+00
  0.00000000E+00  0.00000000E+00  0.00000000E+00
  0.00000000E+00  0.00000000E+00  0.00000000E+00
  0.00000000E+00  0.00000000E+00  0.00000000E+00
  0.00000000E+00  0.00000000E+00  0.00000000E+00
  0.00000000E+00  0.00000000E+00  0.00000000E+00
  0.00000000E+00  0.00000000E+00  0.00000000E+00
  0.00000000E+00  0.00000000E+00  0.00000000E+00
  0.00000000E+00  0.00000000E+00  0.00000000E+00
  0.00000000E+00  0.00000000E+00  0.00000000E+00
  0.00000000E+00  0.00000000E+00  0.00000000E+00
  0.00000000E+00  0.00000000E+00  0.00000000E+00
  0.00000000E+00  0.00000000E+00  0.00000000E+00
