 Ti2C                                   
   1.00000000000000     
     6.2287998198999999    0.0000000000000000    0.0000000000000000
    -3.1143999099999999    5.3942988792000000    0.0000000000000000
     0.0000000000000000    0.0000000000000000   25.0000000000000000
   Ti   C    O    Li
    16     8    16     1
Selective dynamics
Direct
  0.1666699945583403  0.3333300054865802  0.0977136903600027   F   F   F
  0.1666699946557841  0.8333300352216781  0.0977136903600027   F   F   F
  0.6666699648656191  0.3333300054865802  0.0977136903600027   F   F   F
  0.6666699648025229  0.8333300352216781  0.0977136903600027   F   F   F
  0.3333300054867649  0.1666699945875720  0.1909879624399977   F   F   F
  0.3333300053707760  0.6666699648153980  0.1909879624399977   F   F   F
  0.8333300351955373  0.1666699945875720  0.1909879624399977   F   F   F
  0.8333300352400954  0.6666699648153980  0.1909879624399977   F   F   F
  0.9998563483149425  0.9999277414922219  0.3872287395129632   T   T   T
  0.0000001394433937  0.4999998606678346  0.3864705778638680   T   T   T
  0.5000722183253785  0.9999277816826506  0.3872287960207785   T   T   T
  0.5000722585528834  0.5001436517592097  0.3872287395129632   T   T   T
  0.1645549618623576  0.3354450381825629  0.4898345358366072   T   T   T
  0.1645559365032483  0.8291130352809972  0.4898351207416454   T   T   T
  0.6708869648063001  0.3354440636391161  0.4898351207416454   T   T   T
  0.6666663035980420  0.8333336964261591  0.4933495269057744   T   T   T
  0.0000000000000000  0.0000000000000000  0.1443537243600019   F   F   F
  0.0000000000370761  0.5000000000741522  0.1443537243600019   F   F   F
  0.5000000000080291  0.0000000000000000  0.1443537243600019   F   F   F
  0.5000000000451053  0.5000000000741522  0.1443537243600019   F   F   F
  0.3333330831575978  0.1666669169167392  0.4394208662979722   T   T   T
  0.3374162043166749  0.6687088524908660  0.4408864731068149   T   T   T
  0.8312911475200693  0.1625837956416731  0.4408864731068149   T   T   T
  0.8312912738055260  0.6687087262499674  0.4408865840493448   T   T   T
  0.3333300054867649  0.1666699945875720  0.0497136903600008   F   F   F
  0.3333300053707760  0.6666699648153980  0.0497136903600008   F   F   F
  0.8333300351955373  0.1666699945875720  0.0497136903600008   F   F   F
  0.8333300352400954  0.6666699648153980  0.0497136903600008   F   F   F
  0.1666699945583403  0.3333300054865802  0.2389879624399995   F   F   F
  0.1666699946557841  0.8333300352216781  0.2389879624399995   F   F   F
  0.6666699648656191  0.3333300054865802  0.2389879624399995   F   F   F
  0.6666699648025229  0.8333300352216781  0.2389879624399995   F   F   F
  0.1656555078402135  0.3343444922047070  0.3517998218147156   T   T   T
  0.1656554962740273  0.8313106204498979  0.3517998335947254   T   T   T
  0.6686893796373994  0.3343445038683370  0.3517998335947254   T   T   T
  0.6666668364485560  0.8333331635756451  0.3518836740846538   T   T   T
  0.0154014629945678  0.0077027146991426  0.5329486842355990   T   T   T
  0.9999994938931565  0.5000005062180719  0.5290654995150348   T   T   T
  0.4922968551477069  0.0077031448603222  0.5329488315343198   T   T   T
  0.4922972853459626  0.4845985370795844  0.5329486842355990   T   T   T
  0.3333267196954282  0.1666740845681076  0.5751337627558897   T   T   T
 
  0.00000000E+00  0.00000000E+00  0.00000000E+00
  0.00000000E+00  0.00000000E+00  0.00000000E+00
  0.00000000E+00  0.00000000E+00  0.00000000E+00
  0.00000000E+00  0.00000000E+00  0.00000000E+00
  0.00000000E+00  0.00000000E+00  0.00000000E+00
  0.00000000E+00  0.00000000E+00  0.00000000E+00
  0.00000000E+00  0.00000000E+00  0.00000000E+00
  0.00000000E+00  0.00000000E+00  0.00000000E+00
  0.00000000E+00  0.00000000E+00  0.00000000E+00
  0.00000000E+00  0.00000000E+00  0.00000000E+00
  0.00000000E+00  0.00000000E+00  0.00000000E+00
  0.00000000E+00  0.00000000E+00  0.00000000E+00
  0.00000000E+00  0.00000000E+00  0.00000000E+00
  0.00000000E+00  0.00000000E+00  0.00000000E+00
  0.00000000E+00  0.00000000E+00  0.00000000E+00
  0.00000000E+00  0.00000000E+00  0.00000000E+00
  0.00000000E+00  0.00000000E+00  0.00000000E+00
  0.00000000E+00  0.00000000E+00  0.00000000E+00
  0.00000000E+00  0.00000000E+00  0.00000000E+00
  0.00000000E+00  0.00000000E+00  0.00000000E+00
  0.00000000E+00  0.00000000E+00  0.00000000E+00
  0.00000000E+00  0.00000000E+00  0.00000000E+00
  0.00000000E+00  0.00000000E+00  0.00000000E+00
  0.00000000E+00  0.00000000E+00  0.00000000E+00
  0.00000000E+00  0.00000000E+00  0.00000000E+00
  0.00000000E+00  0.00000000E+00  0.00000000E+00
  0.00000000E+00  0.00000000E+00  0.00000000E+00
  0.00000000E+00  0.00000000E+00  0.00000000E+00
  0.00000000E+00  0.00000000E+00  0.00000000E+00
  0.00000000E+00  0.00000000E+00  0.00000000E+00
  0.00000000E+00  0.00000000E+00  0.00000000E+00
  0.00000000E+00  0.00000000E+00  0.00000000E+00
  0.00000000E+00  0.00000000E+00  0.00000000E+00
  0.00000000E+00  0.00000000E+00  0.00000000E+00
  0.00000000E+00  0.00000000E+00  0.00000000E+00
  0.00000000E+00  0.00000000E+00  0.00000000E+00
  0.00000000E+00  0.00000000E+00  0.00000000E+00
  0.00000000E+00  0.00000000E+00  0.00000000E+00
  0.00000000E+00  0.00000000E+00  0.00000000E+00
  0.00000000E+00  0.00000000E+00  0.00000000E+00
  0.00000000E+00  0.00000000E+00  0.00000000E+00
