Co3 H3 O6                               
   1.00000000000000     
     5.8688778877000001    0.0000000000000000    0.0000000000000000
    -2.9344396207000001    5.0825969517000003    0.0000000000000000
     0.0000000000000000    0.0000000000000000   20.0000000000000000
   Ni   O    H    Li
     8    16     8     1
Selective dynamics
Direct
  0.3333333429999996  0.1666666719999981  0.2183783500000018   F   F   F
  0.3333333429999996  0.6666666870000029  0.2183783500000018   F   F   F
  0.8333333730000021  0.1666666719999981  0.2183783500000018   F   F   F
  0.8333333730000021  0.6666666870000029  0.2183783500000018   F   F   F
  0.1657426343030508  0.3311073179953397  0.4449086658569215   T   T   T
  0.1657463506080532  0.8342536193919443  0.4449082746312101   T   T   T
  0.6667942659135164  0.3332057640864861  0.4525875144319329   T   T   T
  0.6688927120046628  0.8342573506969444  0.4449086658569215   T   T   T
  0.1666666719999981  0.3333333429999996  0.1691211159999995   F   F   F
  0.1666666570000004  0.8333333129999971  0.1691211159999995   F   F   F
  0.6666666870000029  0.3333333429999996  0.1691211159999995   F   F   F
  0.6666666870000029  0.8333333129999971  0.1691211159999995   F   F   F
  0.0000000000000000  0.0000000000000000  0.2676355540000017   F   F   F
  0.0000000000000000  0.4999999699999975  0.2676355540000017   F   F   F
  0.5000000000000000  0.0000000000000000  0.2676355540000017   F   F   F
  0.5000000000000000  0.4999999699999975  0.2676355540000017   F   F   F
  0.0001284831417649  0.9998715168582351  0.3987898311753355   T   T   T
  0.0103989795605273  0.5050091541678299  0.3985070210391726   T   T   T
  0.4949908158321676  0.9896010204394727  0.3985070210391726   T   T   T
  0.4949882927954121  0.5050116772045854  0.3985046045099381   T   T   T
  0.3088489311614708  0.1542331685523948  0.4917823570160564   T   T   T
  0.3334636992219799  0.6665363307780225  0.4902057066620742   T   T   T
  0.8457659924921757  0.1542340525078245  0.4917828532217712   T   T   T
  0.8457668764476054  0.6911510988385317  0.4917823570160564   T   T   T
  0.1666666719999981  0.3333333429999996  0.1091891749999974   F   F   F
  0.1666666570000004  0.8333333129999971  0.1091891749999974   F   F   F
  0.6666666870000029  0.3333333429999996  0.1091891749999974   F   F   F
  0.6666666870000029  0.8333333129999971  0.1091891749999974   F   F   F
  0.0000258108933195  0.9999741891066805  0.3176384343410490   T   T   T
  0.0462029516357134  0.5230376693238625  0.3166631489689493   T   T   T
  0.4769623006761350  0.9537970483642866  0.3166631489689493   T   T   T
  0.4769252059152791  0.5230747640847184  0.3166653970871138   T   T   T
  0.6666691919344245  0.3333308080655755  0.3304643308182449   T   T   T
 
  0.00000000E+00  0.00000000E+00  0.00000000E+00
  0.00000000E+00  0.00000000E+00  0.00000000E+00
  0.00000000E+00  0.00000000E+00  0.00000000E+00
  0.00000000E+00  0.00000000E+00  0.00000000E+00
  0.00000000E+00  0.00000000E+00  0.00000000E+00
  0.00000000E+00  0.00000000E+00  0.00000000E+00
  0.00000000E+00  0.00000000E+00  0.00000000E+00
  0.00000000E+00  0.00000000E+00  0.00000000E+00
  0.00000000E+00  0.00000000E+00  0.00000000E+00
  0.00000000E+00  0.00000000E+00  0.00000000E+00
  0.00000000E+00  0.00000000E+00  0.00000000E+00
  0.00000000E+00  0.00000000E+00  0.00000000E+00
  0.00000000E+00  0.00000000E+00  0.00000000E+00
  0.00000000E+00  0.00000000E+00  0.00000000E+00
  0.00000000E+00  0.00000000E+00  0.00000000E+00
  0.00000000E+00  0.00000000E+00  0.00000000E+00
  0.00000000E+00  0.00000000E+00  0.00000000E+00
  0.00000000E+00  0.00000000E+00  0.00000000E+00
  0.00000000E+00  0.00000000E+00  0.00000000E+00
  0.00000000E+00  0.00000000E+00  0.00000000E+00
  0.00000000E+00  0.00000000E+00  0.00000000E+00
  0.00000000E+00  0.00000000E+00  0.00000000E+00
  0.00000000E+00  0.00000000E+00  0.00000000E+00
  0.00000000E+00  0.00000000E+00  0.00000000E+00
  0.00000000E+00  0.00000000E+00  0.00000000E+00
  0.00000000E+00  0.00000000E+00  0.00000000E+00
  0.00000000E+00  0.00000000E+00  0.00000000E+00
  0.00000000E+00  0.00000000E+00  0.00000000E+00
  0.00000000E+00  0.00000000E+00  0.00000000E+00
  0.00000000E+00  0.00000000E+00  0.00000000E+00
  0.00000000E+00  0.00000000E+00  0.00000000E+00
  0.00000000E+00  0.00000000E+00  0.00000000E+00
  0.00000000E+00  0.00000000E+00  0.00000000E+00
