Li4 Zr2 O6                              
   1.00000000000000     
     5.2445805897891793   -0.0080159982698699    0.0054292397417726
    -2.5262985038477268    4.5960320573782569    0.0054292411475320
    -1.0101794376587681   -1.7050175515397943    4.9876098995530196
   Li   Zr   O 
     4     2     6
Direct
  0.7378862374605504  0.2621137925399211  0.2499999999998579
  0.2621137925394450  0.7378862374600743  0.7500000000001421
  0.4239735228217185  0.5760265071782769  0.2499999999999929
  0.5760265071782840  0.4239735228217256  0.7500000000000071
  0.0909354223265453  0.9090645476732959  0.2499999999999787
  0.9090645476734522  0.0909354223267016  0.7500000000000213
  0.0000000000000000  0.5000000000000000  0.0000000000000000
  0.6900215182760903  0.8421455525645953  0.9887281006216071
  0.8421455525645243  0.6900215182759837  0.4887281006215858
  0.3099785117239122  0.1578544184354058  0.0112719023783896
  0.1578544184354769  0.3099785117240188  0.5112718993784142
  0.5000000000000000  0.0000000000000000  0.5000000000000000
 
  0.00000000E+00  0.00000000E+00  0.00000000E+00
  0.00000000E+00  0.00000000E+00  0.00000000E+00
  0.00000000E+00  0.00000000E+00  0.00000000E+00
  0.00000000E+00  0.00000000E+00  0.00000000E+00
  0.00000000E+00  0.00000000E+00  0.00000000E+00
  0.00000000E+00  0.00000000E+00  0.00000000E+00
  0.00000000E+00  0.00000000E+00  0.00000000E+00
  0.00000000E+00  0.00000000E+00  0.00000000E+00
  0.00000000E+00  0.00000000E+00  0.00000000E+00
  0.00000000E+00  0.00000000E+00  0.00000000E+00
  0.00000000E+00  0.00000000E+00  0.00000000E+00
  0.00000000E+00  0.00000000E+00  0.00000000E+00
