Li2 La2 Ti2 O8                          
   1.00000000000000     
     3.7805963206773066    0.0000000000000000    0.0000000000000000
     0.0000000000000000    3.7805963206773066    0.0000000000000000
     0.0000000000000000    0.0000000000000000   12.0195117544037071
   Li   La   Ti   O 
     2     2     2     8
Direct
  0.5000000000000000  0.5000000000000000  0.5000000000000000
  0.0000000000000000  0.0000000000000000  0.5000000000000000
  0.0000000000000000  0.5000000000000000  0.1189077370382421
  0.5000000000000000  0.0000000000000000  0.8810922929617533
  0.0000000000000000  0.5000000000000000  0.7046561882671156
  0.5000000000000000  0.0000000000000000  0.2953437817328819
  0.0000000000000000  0.5000000000000000  0.9230181077542312
  0.5000000000000000  0.0000000000000000  0.0769818622457663
  0.0000000000000000  0.5000000000000000  0.5547318473155372
  0.5000000000000000  0.0000000000000000  0.4452681526844628
  0.0000000000000000  0.0000000000000000  0.7430780839921098
  0.5000000000000000  0.5000000000000000  0.7430780839921098
  0.5000000000000000  0.5000000000000000  0.2569218860078877
  0.0000000000000000  0.0000000000000000  0.2569218860078877
 
  0.00000000E+00  0.00000000E+00  0.00000000E+00
  0.00000000E+00  0.00000000E+00  0.00000000E+00
  0.00000000E+00  0.00000000E+00  0.00000000E+00
  0.00000000E+00  0.00000000E+00  0.00000000E+00
  0.00000000E+00  0.00000000E+00  0.00000000E+00
  0.00000000E+00  0.00000000E+00  0.00000000E+00
  0.00000000E+00  0.00000000E+00  0.00000000E+00
  0.00000000E+00  0.00000000E+00  0.00000000E+00
  0.00000000E+00  0.00000000E+00  0.00000000E+00
  0.00000000E+00  0.00000000E+00  0.00000000E+00
  0.00000000E+00  0.00000000E+00  0.00000000E+00
  0.00000000E+00  0.00000000E+00  0.00000000E+00
  0.00000000E+00  0.00000000E+00  0.00000000E+00
  0.00000000E+00  0.00000000E+00  0.00000000E+00
