 Mo2 Te4                                
   1.00000000000000     
     7.0273399352999997    0.0000000000000000    0.0000000000000000
    -3.5136699676999998    6.0858549049999997    0.0000000000000000
     0.0000000000000000    0.0000000000000000   25.0000000000000000
   Mo   Te   Li
     8    16     1
Selective dynamics
Direct
  0.1666666719999981  0.3333333429999996  0.1401260640000004   F   F   F
  0.1666666719999981  0.8333333730000021  0.1401260640000004   F   F   F
  0.6666666870000029  0.3333333429999996  0.1401260640000004   F   F   F
  0.6666666870000029  0.8333333730000021  0.1401260640000004   F   F   F
  0.3321849004021331  0.1643698318042794  0.4207393651962974   T   T   T
  0.3321849004021331  0.6678150395978619  0.4207393651962974   T   T   T
  0.8333333129999971  0.1666666570000004  0.4205242964264286   T   T   T
  0.8356301381957181  0.6678150395978619  0.4207393651962974   T   T   T
  0.3333333129999971  0.1666666570000004  0.0677241679999980   F   F   F
  0.3333333129999971  0.6666666269999979  0.0677241679999980   F   F   F
  0.8333333129999971  0.1666666570000004  0.0677241679999980   F   F   F
  0.8333333129999971  0.6666666269999979  0.0677241679999980   F   F   F
  0.3333333129999971  0.1666666570000004  0.2125279609999993   F   F   F
  0.3333333129999971  0.6666666269999979  0.2125279609999993   F   F   F
  0.8333333129999971  0.1666666570000004  0.2125279609999993   F   F   F
  0.8333333129999971  0.6666666269999979  0.2125279609999993   F   F   F
  0.1662995295446521  0.3331497717723266  0.3479023229639751   T   T   T
  0.1666666719999981  0.8333333730000021  0.3473201626033315   T   T   T
  0.6668502582276759  0.3331497717723266  0.3479023229639751   T   T   T
  0.6668502582276759  0.8337005154553481  0.3479023229639751   T   T   T
  0.1677130974183996  0.3338565557091968  0.4932413334528150   T   T   T
  0.1666666719999981  0.8333333730000021  0.4938608162323561   T   T   T
  0.6661434742908057  0.3338565557091968  0.4932413334528150   T   T   T
  0.6661434742908057  0.8322869475816006  0.4932413334528150   T   T   T
  0.5000000004976286  0.5000000000000000  0.5669231792526048   T   T   T
 
  0.00000000E+00  0.00000000E+00  0.00000000E+00
  0.00000000E+00  0.00000000E+00  0.00000000E+00
  0.00000000E+00  0.00000000E+00  0.00000000E+00
  0.00000000E+00  0.00000000E+00  0.00000000E+00
  0.00000000E+00  0.00000000E+00  0.00000000E+00
  0.00000000E+00  0.00000000E+00  0.00000000E+00
  0.00000000E+00  0.00000000E+00  0.00000000E+00
  0.00000000E+00  0.00000000E+00  0.00000000E+00
  0.00000000E+00  0.00000000E+00  0.00000000E+00
  0.00000000E+00  0.00000000E+00  0.00000000E+00
  0.00000000E+00  0.00000000E+00  0.00000000E+00
  0.00000000E+00  0.00000000E+00  0.00000000E+00
  0.00000000E+00  0.00000000E+00  0.00000000E+00
  0.00000000E+00  0.00000000E+00  0.00000000E+00
  0.00000000E+00  0.00000000E+00  0.00000000E+00
  0.00000000E+00  0.00000000E+00  0.00000000E+00
  0.00000000E+00  0.00000000E+00  0.00000000E+00
  0.00000000E+00  0.00000000E+00  0.00000000E+00
  0.00000000E+00  0.00000000E+00  0.00000000E+00
  0.00000000E+00  0.00000000E+00  0.00000000E+00
  0.00000000E+00  0.00000000E+00  0.00000000E+00
  0.00000000E+00  0.00000000E+00  0.00000000E+00
  0.00000000E+00  0.00000000E+00  0.00000000E+00
  0.00000000E+00  0.00000000E+00  0.00000000E+00
  0.00000000E+00  0.00000000E+00  0.00000000E+00
