 In4 Se4                                
   1.00000000000000     
     8.7569551467999993    0.0000000000000000    0.0000000000000000
    -4.3784785831999997    7.5837450338999997    0.0000000000000000
     0.0000000000000000    0.0000000000000000   25.0000000000000000
   In   Te   Li
    16    16     1
Selective dynamics
Direct
  0.1666666719999981  0.3333333429999996  0.1214502830000015   F   F   F
  0.1666666870000029  0.8333333730000021  0.1214502830000015   F   F   F
  0.6666666870000029  0.3333333429999996  0.1214502830000015   F   F   F
  0.6666666870000029  0.8333333730000021  0.1214502830000015   F   F   F
  0.1666666719999981  0.3333333429999996  0.2325568199999992   F   F   F
  0.1666666870000029  0.8333333730000021  0.2325568199999992   F   F   F
  0.6666666870000029  0.3333333429999996  0.2325568199999992   F   F   F
  0.6666666870000029  0.8333333730000021  0.2325568199999992   F   F   F
  0.3323393890006159  0.1646788090012450  0.4736530628356448   T   T   T
  0.3323393890006159  0.6676605509993792  0.4736530628356448   T   T   T
  0.8333333129999971  0.1666666570000004  0.4712344875212153   T   T   T
  0.8353211609987525  0.6676605509993792  0.4736530628356448   T   T   T
  0.3298323169056872  0.1596646648113733  0.5859501346292930   T   T   T
  0.3298323169056872  0.6701676230943079  0.5859501346292930   T   T   T
  0.8333333129999971  0.1666666570000004  0.5851963132024665   T   T   T
  0.8403353051886242  0.6701676230943079  0.5859501346292930   T   T   T
  0.3333333129999971  0.1666666570000004  0.0664311720000015   F   F   F
  0.3333333129999971  0.6666666269999979  0.0664311720000015   F   F   F
  0.8333333129999971  0.1666666570000004  0.0664311720000015   F   F   F
  0.8333333129999971  0.6666666269999979  0.0664311720000015   F   F   F
  0.3333333129999971  0.1666666570000004  0.2875759300000027   F   F   F
  0.3333333129999971  0.6666666269999979  0.2875759300000027   F   F   F
  0.8333333129999971  0.1666666570000004  0.2875759300000027   F   F   F
  0.8333333129999971  0.6666666269999979  0.2875759300000027   F   F   F
  0.1686654388960989  0.3343327264480536  0.4187677288625267   T   T   T
  0.1666666870000029  0.8333333730000021  0.4179211036464423   T   T   T
  0.6656673035519489  0.3343327264480536  0.4187677288625267   T   T   T
  0.6656673035519489  0.8313346061039013  0.4187677288625267   T   T   T
  0.1691398468168828  0.3345699304084420  0.6438036010022898   T   T   T
  0.1666666870000029  0.8333333730000021  0.6457941464068497   T   T   T
  0.6654300995915605  0.3345699304084420  0.6438036010022898   T   T   T
  0.6654300995915605  0.8308601981831174  0.6438036010022898   T   T   T
  0.4999999620619775  0.5000000000000000  0.6916167000352047   T   T   T
 
  0.00000000E+00  0.00000000E+00  0.00000000E+00
  0.00000000E+00  0.00000000E+00  0.00000000E+00
  0.00000000E+00  0.00000000E+00  0.00000000E+00
  0.00000000E+00  0.00000000E+00  0.00000000E+00
  0.00000000E+00  0.00000000E+00  0.00000000E+00
  0.00000000E+00  0.00000000E+00  0.00000000E+00
  0.00000000E+00  0.00000000E+00  0.00000000E+00
  0.00000000E+00  0.00000000E+00  0.00000000E+00
  0.00000000E+00  0.00000000E+00  0.00000000E+00
  0.00000000E+00  0.00000000E+00  0.00000000E+00
  0.00000000E+00  0.00000000E+00  0.00000000E+00
  0.00000000E+00  0.00000000E+00  0.00000000E+00
  0.00000000E+00  0.00000000E+00  0.00000000E+00
  0.00000000E+00  0.00000000E+00  0.00000000E+00
  0.00000000E+00  0.00000000E+00  0.00000000E+00
  0.00000000E+00  0.00000000E+00  0.00000000E+00
  0.00000000E+00  0.00000000E+00  0.00000000E+00
  0.00000000E+00  0.00000000E+00  0.00000000E+00
  0.00000000E+00  0.00000000E+00  0.00000000E+00
  0.00000000E+00  0.00000000E+00  0.00000000E+00
  0.00000000E+00  0.00000000E+00  0.00000000E+00
  0.00000000E+00  0.00000000E+00  0.00000000E+00
  0.00000000E+00  0.00000000E+00  0.00000000E+00
  0.00000000E+00  0.00000000E+00  0.00000000E+00
  0.00000000E+00  0.00000000E+00  0.00000000E+00
  0.00000000E+00  0.00000000E+00  0.00000000E+00
  0.00000000E+00  0.00000000E+00  0.00000000E+00
  0.00000000E+00  0.00000000E+00  0.00000000E+00
  0.00000000E+00  0.00000000E+00  0.00000000E+00
  0.00000000E+00  0.00000000E+00  0.00000000E+00
  0.00000000E+00  0.00000000E+00  0.00000000E+00
  0.00000000E+00  0.00000000E+00  0.00000000E+00
  0.00000000E+00  0.00000000E+00  0.00000000E+00
