 In4 Se4                                
   1.00000000000000     
     7.8505396843000002    0.0000000000000000    0.0000000000000000
    -3.9252707474999999    6.7987662773000004    0.0000000000000000
     0.0000000000000000    0.0000000000000000   25.0000000000000000
   In   S    Li
    16    16     1
Selective dynamics
Direct
  0.1666666570000004  0.3333333129999971  0.1067663509999974   F   F   F
  0.1666666870000029  0.8333333730000021  0.1067663509999974   F   F   F
  0.6666666870000029  0.3333333129999971  0.1067663509999974   F   F   F
  0.6666666870000029  0.8333333730000021  0.1067663509999974   F   F   F
  0.1666666570000004  0.3333333129999971  0.2186197640000032   F   F   F
  0.1666666870000029  0.8333333730000021  0.2186197640000032   F   F   F
  0.6666666870000029  0.3333333129999971  0.2186197640000032   F   F   F
  0.6666666870000029  0.8333333730000021  0.2186197640000032   F   F   F
  0.3347517114025678  0.1695034538051416  0.4315415097469426   T   T   T
  0.3347517114025678  0.6652482285974273  0.4315415097469426   T   T   T
  0.8333333129999971  0.1666666570000004  0.4338963382943390   T   T   T
  0.8304965161948559  0.6652482285974273  0.4315415097469426   T   T   T
  0.3327922541303607  0.1655845392607276  0.5438975835823996   T   T   T
  0.3327922541303607  0.6672076858696343  0.5438975835823996   T   T   T
  0.8333333129999971  0.1666666570000004  0.5518452167614498   T   T   T
  0.8344154307392699  0.6672076858696343  0.5438975835823996   T   T   T
  0.3333333129999971  0.1666666570000004  0.0596146099999970   F   F   F
  0.3333333129999971  0.6666666269999979  0.0596146099999970   F   F   F
  0.8333333129999971  0.1666666570000004  0.0596146099999970   F   F   F
  0.8333333129999971  0.6666666269999979  0.0596146099999970   F   F   F
  0.3333333129999971  0.1666666570000004  0.2657715080000003   F   F   F
  0.3333333129999971  0.6666666269999979  0.2657715080000003   F   F   F
  0.8333333129999971  0.1666666570000004  0.2657715080000003   F   F   F
  0.8333333129999971  0.6666666269999979  0.2657715080000003   F   F   F
  0.1691656557345880  0.3345828123672874  0.3850430175713768   T   T   T
  0.1666666870000029  0.8333333730000021  0.3866517896664874   T   T   T
  0.6654171876327126  0.3345828123672874  0.3850430175713768   T   T   T
  0.6654171876327126  0.8308343742654145  0.3850430175713768   T   T   T
  0.1854671901487634  0.3427335795743787  0.5976342604929030   T   T   T
  0.1666666870000029  0.8333333730000021  0.5930048667517340   T   T   T
  0.6572664204256213  0.3427335795743787  0.5976342604929030   T   T   T
  0.6572664204256213  0.8145328398512319  0.5976342604929030   T   T   T
  0.4999999620589008  0.5000000000000000  0.6451385928679017   T   T   T
 
  0.00000000E+00  0.00000000E+00  0.00000000E+00
  0.00000000E+00  0.00000000E+00  0.00000000E+00
  0.00000000E+00  0.00000000E+00  0.00000000E+00
  0.00000000E+00  0.00000000E+00  0.00000000E+00
  0.00000000E+00  0.00000000E+00  0.00000000E+00
  0.00000000E+00  0.00000000E+00  0.00000000E+00
  0.00000000E+00  0.00000000E+00  0.00000000E+00
  0.00000000E+00  0.00000000E+00  0.00000000E+00
  0.00000000E+00  0.00000000E+00  0.00000000E+00
  0.00000000E+00  0.00000000E+00  0.00000000E+00
  0.00000000E+00  0.00000000E+00  0.00000000E+00
  0.00000000E+00  0.00000000E+00  0.00000000E+00
  0.00000000E+00  0.00000000E+00  0.00000000E+00
  0.00000000E+00  0.00000000E+00  0.00000000E+00
  0.00000000E+00  0.00000000E+00  0.00000000E+00
  0.00000000E+00  0.00000000E+00  0.00000000E+00
  0.00000000E+00  0.00000000E+00  0.00000000E+00
  0.00000000E+00  0.00000000E+00  0.00000000E+00
  0.00000000E+00  0.00000000E+00  0.00000000E+00
  0.00000000E+00  0.00000000E+00  0.00000000E+00
  0.00000000E+00  0.00000000E+00  0.00000000E+00
  0.00000000E+00  0.00000000E+00  0.00000000E+00
  0.00000000E+00  0.00000000E+00  0.00000000E+00
  0.00000000E+00  0.00000000E+00  0.00000000E+00
  0.00000000E+00  0.00000000E+00  0.00000000E+00
  0.00000000E+00  0.00000000E+00  0.00000000E+00
  0.00000000E+00  0.00000000E+00  0.00000000E+00
  0.00000000E+00  0.00000000E+00  0.00000000E+00
  0.00000000E+00  0.00000000E+00  0.00000000E+00
  0.00000000E+00  0.00000000E+00  0.00000000E+00
  0.00000000E+00  0.00000000E+00  0.00000000E+00
  0.00000000E+00  0.00000000E+00  0.00000000E+00
  0.00000000E+00  0.00000000E+00  0.00000000E+00
