 W2 Se4                                 
   1.00000000000000     
     6.5831685065999999    0.0000000000000000    0.0000000000000000
    -3.2915850125000001    5.7011907258000001    0.0000000000000000
     0.0000000000000000    0.0000000000000000   25.0000000000000000
   W    Se   Li
     8    16     1
Selective dynamics
Direct
  0.1666666719999981  0.3333333429999996  0.1301581709999979   F   F   F
  0.1666666570000004  0.8333333129999971  0.1301581709999979   F   F   F
  0.6666666870000029  0.3333333429999996  0.1301581709999979   F   F   F
  0.6666666870000029  0.8333333129999971  0.1301581709999979   F   F   F
  0.3338741169016615  0.1677482648033291  0.3911797139448083   T   T   T
  0.3338741169016615  0.6661258230983336  0.3911797139448083   T   T   T
  0.8333333129999971  0.1666666570000004  0.3900363269549985   T   T   T
  0.8322517051966685  0.6661258230983336  0.3911797139448083   T   T   T
  0.3333333129999971  0.1666666570000004  0.0627827120000006   F   F   F
  0.3333333129999971  0.6666666269999979  0.0627827120000006   F   F   F
  0.8333333129999971  0.1666666570000004  0.0627827120000006   F   F   F
  0.8333333129999971  0.6666666269999979  0.0627827120000006   F   F   F
  0.3333333129999971  0.1666666570000004  0.1975336069999969   F   F   F
  0.3333333129999971  0.6666666269999979  0.1975336069999969   F   F   F
  0.8333333129999971  0.1666666570000004  0.1975336069999969   F   F   F
  0.8333333129999971  0.6666666269999979  0.1975336069999969   F   F   F
  0.1672175167112044  0.3336087653556064  0.3231074867183921   T   T   T
  0.1666666570000004  0.8333333129999971  0.3236984102671627   T   T   T
  0.6663912646443961  0.3336087653556064  0.3231074867183921   T   T   T
  0.6663912646443961  0.8327824682887908  0.3231074867183921   T   T   T
  0.1667537761226399  0.3333768950613205  0.4594411313868321   T   T   T
  0.1666666570000004  0.8333333129999971  0.4589819908658299   T   T   T
  0.6666231349386820  0.3333768950613205  0.4594411313868321   T   T   T
  0.6666231349386820  0.8332462088773553  0.4594411313868321   T   T   T
  0.5000001153244042  0.5000000000000000  0.5268786286481344   T   T   T
 
  0.00000000E+00  0.00000000E+00  0.00000000E+00
  0.00000000E+00  0.00000000E+00  0.00000000E+00
  0.00000000E+00  0.00000000E+00  0.00000000E+00
  0.00000000E+00  0.00000000E+00  0.00000000E+00
  0.00000000E+00  0.00000000E+00  0.00000000E+00
  0.00000000E+00  0.00000000E+00  0.00000000E+00
  0.00000000E+00  0.00000000E+00  0.00000000E+00
  0.00000000E+00  0.00000000E+00  0.00000000E+00
  0.00000000E+00  0.00000000E+00  0.00000000E+00
  0.00000000E+00  0.00000000E+00  0.00000000E+00
  0.00000000E+00  0.00000000E+00  0.00000000E+00
  0.00000000E+00  0.00000000E+00  0.00000000E+00
  0.00000000E+00  0.00000000E+00  0.00000000E+00
  0.00000000E+00  0.00000000E+00  0.00000000E+00
  0.00000000E+00  0.00000000E+00  0.00000000E+00
  0.00000000E+00  0.00000000E+00  0.00000000E+00
  0.00000000E+00  0.00000000E+00  0.00000000E+00
  0.00000000E+00  0.00000000E+00  0.00000000E+00
  0.00000000E+00  0.00000000E+00  0.00000000E+00
  0.00000000E+00  0.00000000E+00  0.00000000E+00
  0.00000000E+00  0.00000000E+00  0.00000000E+00
  0.00000000E+00  0.00000000E+00  0.00000000E+00
  0.00000000E+00  0.00000000E+00  0.00000000E+00
  0.00000000E+00  0.00000000E+00  0.00000000E+00
  0.00000000E+00  0.00000000E+00  0.00000000E+00
