 W2 S4                                  
   1.00000000000000     
     6.3433074951000004    0.0000000000000000    0.0000000000000000
    -3.1716537476000002    5.4934654348000000    0.0000000000000000
     0.0000000000000000    0.0000000000000000   25.0000000000000000
   W    S    Li
     8    16     1
Selective dynamics
Direct
  0.1666666719999981  0.3333333429999996  0.1243609340000020   F   F   F
  0.1666666570000004  0.8333333730000021  0.1243609340000020   F   F   F
  0.6666666870000029  0.3333333429999996  0.1243609340000020   F   F   F
  0.6666666870000029  0.8333333730000021  0.1243609340000020   F   F   F
  0.3334355075805320  0.1668710461610701  0.3739029797266866   T   T   T
  0.3334355075805320  0.6665644324194631  0.3739029797266866   T   T   T
  0.8333333129999971  0.1666666570000004  0.3732567848804820   T   T   T
  0.8331289238389274  0.6665644324194631  0.3739029797266866   T   T   T
  0.3333333129999971  0.1666666570000004  0.0614778180000002   F   F   F
  0.3333333129999971  0.6666666269999979  0.0614778180000002   F   F   F
  0.8333333129999971  0.1666666570000004  0.0614778180000002   F   F   F
  0.8333333129999971  0.6666666269999979  0.0614778180000002   F   F   F
  0.3333333129999971  0.1666666570000004  0.1872440579999974   F   F   F
  0.3333333129999971  0.6666666269999979  0.1872440579999974   F   F   F
  0.8333333129999971  0.1666666570000004  0.1872440579999974   F   F   F
  0.8333333129999971  0.6666666269999979  0.1872440579999974   F   F   F
  0.1667242598610486  0.3333621369305249  0.3105070840206210   T   T   T
  0.1666666570000004  0.8333333730000021  0.3108780106924343   T   T   T
  0.6666378930694776  0.3333621369305249  0.3105070840206210   T   T   T
  0.6666378930694776  0.8332757851389516  0.3105070840206210   T   T   T
  0.1672514133080867  0.3336257136540439  0.4380457317829496   T   T   T
  0.1666666570000004  0.8333333730000021  0.4374038823756976   T   T   T
  0.6663743163459586  0.3336257136540439  0.4380457317829496   T   T   T
  0.6663743163459586  0.8327486316919135  0.4380457317829496   T   T   T
  0.5000000000078799  0.5000000000000000  0.4998070657193168   T   T   T
 
  0.00000000E+00  0.00000000E+00  0.00000000E+00
  0.00000000E+00  0.00000000E+00  0.00000000E+00
  0.00000000E+00  0.00000000E+00  0.00000000E+00
  0.00000000E+00  0.00000000E+00  0.00000000E+00
  0.00000000E+00  0.00000000E+00  0.00000000E+00
  0.00000000E+00  0.00000000E+00  0.00000000E+00
  0.00000000E+00  0.00000000E+00  0.00000000E+00
  0.00000000E+00  0.00000000E+00  0.00000000E+00
  0.00000000E+00  0.00000000E+00  0.00000000E+00
  0.00000000E+00  0.00000000E+00  0.00000000E+00
  0.00000000E+00  0.00000000E+00  0.00000000E+00
  0.00000000E+00  0.00000000E+00  0.00000000E+00
  0.00000000E+00  0.00000000E+00  0.00000000E+00
  0.00000000E+00  0.00000000E+00  0.00000000E+00
  0.00000000E+00  0.00000000E+00  0.00000000E+00
  0.00000000E+00  0.00000000E+00  0.00000000E+00
  0.00000000E+00  0.00000000E+00  0.00000000E+00
  0.00000000E+00  0.00000000E+00  0.00000000E+00
  0.00000000E+00  0.00000000E+00  0.00000000E+00
  0.00000000E+00  0.00000000E+00  0.00000000E+00
  0.00000000E+00  0.00000000E+00  0.00000000E+00
  0.00000000E+00  0.00000000E+00  0.00000000E+00
  0.00000000E+00  0.00000000E+00  0.00000000E+00
  0.00000000E+00  0.00000000E+00  0.00000000E+00
  0.00000000E+00  0.00000000E+00  0.00000000E+00
